Iron diiron(III) oxide                  
   1.00000000000000     
     8.3960435730008811   -0.0033384530977140   -0.0041295143929817
    -0.0033903514823412    8.4181991584595615   -0.0070821148155203
    -0.0041273145664369   -0.0070169169066742    8.3862989054122110
   Zn   Fe   Ni   Co   Mn   O 
     2     3     3     8     8    32
Direct
  0.6223251621247410  0.6248266956791481  0.1282739627523435
  0.6236677784938177  0.1252769416131733  0.6281751440313189
  0.4999818745756946  0.0044350009136792  0.0003088580636645
 -0.0028713866994890  0.5019713690812194  0.0049241224072090
  0.7469495711775178  0.7521384821188769  0.4952822567272205
  0.1282936308592359  0.6250770815966874  0.6230839689313205
  0.2514623999912236  0.4986161794089379  0.2495450780402095
  0.5004238790649836  0.2503041315656088  0.2476461009496655
  0.2532277573753913 -0.0008105024643496  0.7511416338128621
  0.8741715489363687  0.8749448244785422  0.8738210287391929
  0.3769805103288117  0.8753159621098906  0.3686090693825878
  0.8727731388300730  0.3720235947380722  0.3724108954324291
 -0.0003923066760528  0.7458058615410194  0.2512808973829621
  0.1231826122163274  0.1243026913887580  0.1286304794568647
  0.7457999789084566  0.2534167145501382  0.0002978374464583
  0.3740375238924351  0.3790554692613872  0.8733264214161868
  0.7505064603350906  0.4996973850628407  0.7491037152099385
  0.5017657609987421  0.7486698454373447  0.7528862430709574
  0.2518432300802944  0.7479067750811399  0.0044938944372527
 -0.0004058958032342  0.2542918737368396  0.7472616826577702
 -0.0022532607406167  0.0019051233643551  0.5017481966444526
  0.5020538946178417  0.4970562172717616  0.4965274690715766
  0.2557602104519041  0.2495364199951929  0.4992758986251511
  0.7459972023150272  0.0007234763973554  0.2507920051028744
  0.2564551222206377  0.2550590178945319  0.2721175164855402
  0.7332445050959721  0.7370887219971461  0.7400167392921920
  0.5053967553947847  0.9852575607731748  0.7620678183678915
  0.5190874736658575  0.0075128328091147  0.2401143729385142
  0.9836332459313287  0.7669330963577883  0.5089669313575407
  0.0199381706492225  0.2439855956803786  0.5125049231866921
  0.7577210299915130  0.5039159956097599  0.9824177617292532
  0.2408824885951170  0.5189273440130799  0.0054013299630318
  0.0040950559260988  0.5035431259077051  0.2383165645655432
  0.9887004201959811  0.4847760571268890  0.7516161675906461
  0.5018588169499425  0.2383230001689143  0.0021700451882182
  0.4813754482940993  0.7558869681791083  0.0043968813570736
  0.2529916343424231  0.0227546115276076  0.5050352243009588
  0.7406015824675852  0.9913881526492816  0.4839638109689324
  0.2685981299870740  0.7500652328862342  0.7666589605429646
  0.7451943048370739  0.2272927257332522  0.2455854070071887
  0.5004819523757350  0.4909714565967901  0.2696199710903100
  0.5129806110265916  0.5090136362962095  0.7319041126907058
 -0.0005722450660364  0.2602692807922967  0.9763266831544670
  0.0218393719479393  0.7404927267914110 -0.0057401425128044
 -0.0012012747238044  0.0230036499942942  0.7337402998303505
  0.9795105561316035 -0.0040278328147497  0.2699208583547686
  0.5048495109518417  0.7246392963640862  0.4983775876190868
  0.4865470561028967  0.2642065094423338  0.5029071950285112
  0.7684745256782414  0.2638258486341405  0.7463162330182675
  0.2414131230291753  0.7435746561580920  0.2320453974772279
  0.2713032574558444  0.4822488170893353  0.4993669853105500
  0.7347989391435036  0.5071132135701435  0.5123494814258541
  0.7426598317846992  0.0003492041962015  0.0216315395385885
  0.2580199292305573  0.9797831099744785  0.9988138921659335
  0.7520501570415865  0.7665338092793434  0.2581098028542848
  0.2317892376903290  0.2488049643940111  0.7341127883192494
 
  0.00000000E+00  0.00000000E+00  0.00000000E+00
  0.00000000E+00  0.00000000E+00  0.00000000E+00
  0.00000000E+00  0.00000000E+00  0.00000000E+00
  0.00000000E+00  0.00000000E+00  0.00000000E+00
  0.00000000E+00  0.00000000E+00  0.00000000E+00
  0.00000000E+00  0.00000000E+00  0.00000000E+00
  0.00000000E+00  0.00000000E+00  0.00000000E+00
  0.00000000E+00  0.00000000E+00  0.00000000E+00
  0.00000000E+00  0.00000000E+00  0.00000000E+00
  0.00000000E+00  0.00000000E+00  0.00000000E+00
  0.00000000E+00  0.00000000E+00  0.00000000E+00
  0.00000000E+00  0.00000000E+00  0.00000000E+00
  0.00000000E+00  0.00000000E+00  0.00000000E+00
  0.00000000E+00  0.00000000E+00  0.00000000E+00
  0.00000000E+00  0.00000000E+00  0.00000000E+00
  0.00000000E+00  0.00000000E+00  0.00000000E+00
  0.00000000E+00  0.00000000E+00  0.00000000E+00
  0.00000000E+00  0.00000000E+00  0.00000000E+00
  0.00000000E+00  0.00000000E+00  0.00000000E+00
  0.00000000E+00  0.00000000E+00  0.00000000E+00
  0.00000000E+00  0.00000000E+00  0.00000000E+00
  0.00000000E+00  0.00000000E+00  0.00000000E+00
  0.00000000E+00  0.00000000E+00  0.00000000E+00
  0.00000000E+00  0.00000000E+00  0.00000000E+00
  0.00000000E+00  0.00000000E+00  0.00000000E+00
  0.00000000E+00  0.00000000E+00  0.00000000E+00
  0.00000000E+00  0.00000000E+00  0.00000000E+00
  0.00000000E+00  0.00000000E+00  0.00000000E+00
  0.00000000E+00  0.00000000E+00  0.00000000E+00
  0.00000000E+00  0.00000000E+00  0.00000000E+00
  0.00000000E+00  0.00000000E+00  0.00000000E+00
  0.00000000E+00  0.00000000E+00  0.00000000E+00
  0.00000000E+00  0.00000000E+00  0.00000000E+00
  0.00000000E+00  0.00000000E+00  0.00000000E+00
  0.00000000E+00  0.00000000E+00  0.00000000E+00
  0.00000000E+00  0.00000000E+00  0.00000000E+00
  0.00000000E+00  0.00000000E+00  0.00000000E+00
  0.00000000E+00  0.00000000E+00  0.00000000E+00
  0.00000000E+00  0.00000000E+00  0.00000000E+00
  0.00000000E+00  0.00000000E+00  0.00000000E+00
  0.00000000E+00  0.00000000E+00  0.00000000E+00
  0.00000000E+00  0.00000000E+00  0.00000000E+00
  0.00000000E+00  0.00000000E+00  0.00000000E+00
  0.00000000E+00  0.00000000E+00  0.00000000E+00
  0.00000000E+00  0.00000000E+00  0.00000000E+00
  0.00000000E+00  0.00000000E+00  0.00000000E+00
  0.00000000E+00  0.00000000E+00  0.00000000E+00
  0.00000000E+00  0.00000000E+00  0.00000000E+00
  0.00000000E+00  0.00000000E+00  0.00000000E+00
  0.00000000E+00  0.00000000E+00  0.00000000E+00
  0.00000000E+00  0.00000000E+00  0.00000000E+00
  0.00000000E+00  0.00000000E+00  0.00000000E+00
  0.00000000E+00  0.00000000E+00  0.00000000E+00
  0.00000000E+00  0.00000000E+00  0.00000000E+00
  0.00000000E+00  0.00000000E+00  0.00000000E+00
  0.00000000E+00  0.00000000E+00  0.00000000E+00
