Iron diiron(III) oxide                  
   1.00000000000000     
     8.4047358776141241   -0.0056709850478605   -0.0241549874921726
    -0.0056218366631816    8.4169717166225819    0.0133087975682992
    -0.0242351650729687    0.0133956834631034    8.4287822663045375
   Zn   Fe   Ni   Co   Mn   O 
     2     3     3     8     8    32
Direct
  0.3659366865989877  0.3784512557762296  0.8770544186253733
  0.1319224053890082  0.6180982667182026  0.6213970780540385
  0.1294618414005066  0.1257074735198686  0.1211951698149118
  0.4982518942800264  0.4970363500492893  0.4988691554199927
  0.6306616528786380  0.1247050494081916  0.6244404016741064
  0.2498055693686646  0.4989856222570436  0.2475449558564817
  0.2489053800636124  0.7454099375761108 -0.0016098900480467
  0.7505164672474245  0.4994754961057292  0.7525823370414352
  0.2477883657116426 -0.0007107894675466  0.7498388790168846
  0.0037872210596051  0.5021171135543017 -0.0030368204935894
  0.0013248857963527 -0.0007822720486119  0.5025931666461271
  0.4967043164026236  0.2542551411197831  0.2455741539720389
  0.7536645677849917  0.7459505547113594  0.5040888103501359
  0.6285828329745103  0.6243502142723372  0.1226980713827007
  0.2489395588728288  0.2520758375045046  0.5019060597028149
  0.7467857740881598  0.2571203614561208 -0.0016163178441165
  0.3697982316509855  0.8766148617173622  0.3788188285847473
  0.4995867350332449  0.0029947506813059 -0.0017333392372983
  0.4965853961319684  0.7436883894857894  0.7530987582747021
  0.7489535211947688 -0.0003236818634519  0.2466656415380514
  0.8726659303725370  0.8740404472615396  0.8748817686893295
  0.0029203651471223  0.7482887034377456  0.2508956403474452
  0.0050480032529140  0.2536961290309113  0.7492521907248111
  0.8736941808502491  0.3771526573370450  0.3773655840317288
  0.2499294756664198  0.2502196190809778  0.2607050172530613
  0.7269320266118010  0.7412204670243858  0.7445652073192482
  0.5069464513191291  0.9847690966688714  0.7634091195248817
  0.5164676986145151 -0.0002310885504411  0.2289759887743910
  0.0030963984666041  0.7547298645794644  0.4813811557989746
  0.0072739054473269  0.2466694111125829  0.5230524422406206
  0.7733667036297210  0.4959669458446857  0.9941706677751395
  0.2334474926585380  0.5039077022529395  0.0084632665568055
  0.0052508509036412  0.5211219649610206  0.2398663000743176
  0.9976978117946950  0.4863025703912618  0.7572845548707537
  0.4991288398223340  0.2307015369280641 -0.0031998306670826
  0.4948394358456273  0.7677102897786844  0.9846027728179179
  0.2425548057621083  0.0263729507585321  0.5073896679791511
  0.7509675259044146 -0.0037922222365280  0.4801397936566317
  0.2663223071786963  0.7535561323524417  0.7540578549139765
  0.7448795648274410  0.2261708249838162  0.2422770560134142
  0.4920511724516912  0.4977071478905569  0.2619182158440688
  0.5015645644914997  0.5155826905038529  0.7487842384448872
  0.0033698561655542  0.2570261704757936  0.9842927450061261
  0.0075448676312199  0.7402148541052335  0.0193371068709801
  0.0038076943263302  0.0245313489216066  0.7477937977788015
  0.9866796841397133  0.9878555257524888  0.2431243475576700
  0.4998633359534251  0.7377113576387256  0.5254168547797321
  0.4950052147364919  0.2547282880976918  0.5020251297657236
  0.7688965642965185  0.2506764613327081  0.7525855286370235
  0.2289005954443956  0.7439626759513036  0.2410111508309177
  0.2603928545912286  0.4813687868603989  0.4911632911267851
  0.7324423463338866  0.5066996089651867  0.5108508473946428
  0.7296877515017157  0.0048802504341283  0.0170848400943648
  0.2686964477708426  0.9952226083790824 -0.0017827019162492
  0.7677305802591882  0.7675963909662058  0.2544851388967073
  0.2319733919019103  0.2504418981931169  0.7420037318608114
 
  0.00000000E+00  0.00000000E+00  0.00000000E+00
  0.00000000E+00  0.00000000E+00  0.00000000E+00
  0.00000000E+00  0.00000000E+00  0.00000000E+00
  0.00000000E+00  0.00000000E+00  0.00000000E+00
  0.00000000E+00  0.00000000E+00  0.00000000E+00
  0.00000000E+00  0.00000000E+00  0.00000000E+00
  0.00000000E+00  0.00000000E+00  0.00000000E+00
  0.00000000E+00  0.00000000E+00  0.00000000E+00
  0.00000000E+00  0.00000000E+00  0.00000000E+00
  0.00000000E+00  0.00000000E+00  0.00000000E+00
  0.00000000E+00  0.00000000E+00  0.00000000E+00
  0.00000000E+00  0.00000000E+00  0.00000000E+00
  0.00000000E+00  0.00000000E+00  0.00000000E+00
  0.00000000E+00  0.00000000E+00  0.00000000E+00
  0.00000000E+00  0.00000000E+00  0.00000000E+00
  0.00000000E+00  0.00000000E+00  0.00000000E+00
  0.00000000E+00  0.00000000E+00  0.00000000E+00
  0.00000000E+00  0.00000000E+00  0.00000000E+00
  0.00000000E+00  0.00000000E+00  0.00000000E+00
  0.00000000E+00  0.00000000E+00  0.00000000E+00
  0.00000000E+00  0.00000000E+00  0.00000000E+00
  0.00000000E+00  0.00000000E+00  0.00000000E+00
  0.00000000E+00  0.00000000E+00  0.00000000E+00
  0.00000000E+00  0.00000000E+00  0.00000000E+00
  0.00000000E+00  0.00000000E+00  0.00000000E+00
  0.00000000E+00  0.00000000E+00  0.00000000E+00
  0.00000000E+00  0.00000000E+00  0.00000000E+00
  0.00000000E+00  0.00000000E+00  0.00000000E+00
  0.00000000E+00  0.00000000E+00  0.00000000E+00
  0.00000000E+00  0.00000000E+00  0.00000000E+00
  0.00000000E+00  0.00000000E+00  0.00000000E+00
  0.00000000E+00  0.00000000E+00  0.00000000E+00
  0.00000000E+00  0.00000000E+00  0.00000000E+00
  0.00000000E+00  0.00000000E+00  0.00000000E+00
  0.00000000E+00  0.00000000E+00  0.00000000E+00
  0.00000000E+00  0.00000000E+00  0.00000000E+00
  0.00000000E+00  0.00000000E+00  0.00000000E+00
  0.00000000E+00  0.00000000E+00  0.00000000E+00
  0.00000000E+00  0.00000000E+00  0.00000000E+00
  0.00000000E+00  0.00000000E+00  0.00000000E+00
  0.00000000E+00  0.00000000E+00  0.00000000E+00
  0.00000000E+00  0.00000000E+00  0.00000000E+00
  0.00000000E+00  0.00000000E+00  0.00000000E+00
  0.00000000E+00  0.00000000E+00  0.00000000E+00
  0.00000000E+00  0.00000000E+00  0.00000000E+00
  0.00000000E+00  0.00000000E+00  0.00000000E+00
  0.00000000E+00  0.00000000E+00  0.00000000E+00
  0.00000000E+00  0.00000000E+00  0.00000000E+00
  0.00000000E+00  0.00000000E+00  0.00000000E+00
  0.00000000E+00  0.00000000E+00  0.00000000E+00
  0.00000000E+00  0.00000000E+00  0.00000000E+00
  0.00000000E+00  0.00000000E+00  0.00000000E+00
  0.00000000E+00  0.00000000E+00  0.00000000E+00
  0.00000000E+00  0.00000000E+00  0.00000000E+00
  0.00000000E+00  0.00000000E+00  0.00000000E+00
  0.00000000E+00  0.00000000E+00  0.00000000E+00
