Iron diiron(III) oxide                  
   1.00000000000000     
     8.4030236389703550   -0.0002485158250088    0.0083531831423566
    -0.0002664532661242    8.3514685083552962    0.0125738808961218
     0.0082255258770041    0.0127274662520167    8.4851888521241960
   Zn   Fe   Ni   Co   Mn   O 
     2     3     3     8     8    32
Direct
  0.3768737355005251  0.8745810855090504  0.3733420467763612
  0.6205700183563267  0.6287136355917680  0.1228865520592070
  0.2485290058475041  0.5002831545266313  0.2556928000208625
  0.3793228350785586  0.3730148829264090  0.8800012159202315
  0.2535868226884357 -0.0010132691074654  0.7409647024156227
  0.0003337625749302  0.7511324349772829  0.2507755412183673
  0.7526387090060140  0.2506704605699916  0.0009123119984360
  0.4981003748428466  0.7502873106917468  0.7510099639246242
  0.1214158871824822  0.1228766882450367  0.1243280482474741
  0.8775469245839630  0.3718389401813514  0.3764230217106018
  0.0007207882510857  0.2495731271586338  0.7477285230403959
  0.6216120628448097  0.1272397628523283  0.6238886404638244
  0.1207064243591503  0.6314211139147293  0.6255719344472762
  0.4999008242963906 -0.0004209161860189 -0.0034460437634981
  0.0024160050750786  0.0018136390953082  0.4981471201282879
  0.2463446769058240  0.2463795355764841  0.4984167370286701
  0.7509661144954559  0.4989555003873672  0.7541699358122249
  0.7473776329969996  0.7491614724795990  0.4975597859849645
  0.7473280966593557 -0.0005564704223065  0.2514994464312125
 -0.0003738412243586  0.4994606528839527  0.0002563585782984
  0.5005582762875029  0.2505191636116565  0.2494158538493746
  0.4981911729245382  0.5024563405162508  0.4992551193383211
  0.2531070041373814  0.7503353579807850  0.0003751762169586
  0.8762926285083626  0.8766970099263902  0.8755265866341271
  0.2711770498264032  0.2598310996062818  0.2490008893156379
  0.7434331258192385  0.7340966029285545  0.7275470196878957
  0.4918145419419295  0.9911677962344232  0.7561728300694524
  0.5133079488853882  0.0183357640918692  0.2508783085224757
  0.9737510218768102  0.7492811718602100  0.4895736034134242
  0.0101617976430692  0.2476390494904103  0.5088979132348350
  0.7672892223359268  0.5061713612335701  0.9858140879563182
  0.2361119619951572  0.5105123176311955  0.0042959608625288
  0.0094802481492844  0.5022192145321405  0.2288527196781576
  0.9814549588373993  0.5026200572034711  0.7695002753610488
  0.5063601349030969  0.2499849748920377  0.0206789742903224
  0.4811090490584926  0.7482842984994008  0.9943449403463496
  0.2507861141548196 -0.0034302164505988  0.5090085264651740
  0.7460722179570672  0.9799488020279397  0.4836174219076667
  0.2558371734374132  0.7527134190535486  0.7723725379337807
  0.7330182296062893  0.2340958485441148  0.2476879591639390
  0.4946596322277560  0.4822671884147897  0.2460196402439948
  0.5203867033215490  0.5007879102861458  0.7551367540716640
  0.9944163612426832  0.2721376557576306  0.9945522026142471
  0.0208310506377867  0.7314385661905513  0.0087680936427915
  0.0177317077319506  0.0078006635781153  0.7401007733691013
  0.9744255697864502  0.9945708434067539  0.2539841654647086
  0.5140992486841248  0.7343170777137387  0.5019616900899104
  0.4961607820877431  0.2687097486431085  0.4782640856510083
  0.7506924893106833  0.2708191026918594  0.7596168885805068
  0.2505077591122676  0.7408091878584561  0.2305381665519328
  0.2636479724697091  0.5050440111838165  0.4870239117572532
  0.7388952400257646  0.5119170606144854  0.5185712968704058
  0.7435036378531557  0.0060828356261045  0.0266691730796709
  0.2504046243820501  0.9767782234321036  0.9916724318763182
  0.7475495850131313  0.7626338571390455  0.2638660316623193
  0.2568568975062473  0.2449938921977639  0.7503093477829345
 
  0.00000000E+00  0.00000000E+00  0.00000000E+00
  0.00000000E+00  0.00000000E+00  0.00000000E+00
  0.00000000E+00  0.00000000E+00  0.00000000E+00
  0.00000000E+00  0.00000000E+00  0.00000000E+00
  0.00000000E+00  0.00000000E+00  0.00000000E+00
  0.00000000E+00  0.00000000E+00  0.00000000E+00
  0.00000000E+00  0.00000000E+00  0.00000000E+00
  0.00000000E+00  0.00000000E+00  0.00000000E+00
  0.00000000E+00  0.00000000E+00  0.00000000E+00
  0.00000000E+00  0.00000000E+00  0.00000000E+00
  0.00000000E+00  0.00000000E+00  0.00000000E+00
  0.00000000E+00  0.00000000E+00  0.00000000E+00
  0.00000000E+00  0.00000000E+00  0.00000000E+00
  0.00000000E+00  0.00000000E+00  0.00000000E+00
  0.00000000E+00  0.00000000E+00  0.00000000E+00
  0.00000000E+00  0.00000000E+00  0.00000000E+00
  0.00000000E+00  0.00000000E+00  0.00000000E+00
  0.00000000E+00  0.00000000E+00  0.00000000E+00
  0.00000000E+00  0.00000000E+00  0.00000000E+00
  0.00000000E+00  0.00000000E+00  0.00000000E+00
  0.00000000E+00  0.00000000E+00  0.00000000E+00
  0.00000000E+00  0.00000000E+00  0.00000000E+00
  0.00000000E+00  0.00000000E+00  0.00000000E+00
  0.00000000E+00  0.00000000E+00  0.00000000E+00
  0.00000000E+00  0.00000000E+00  0.00000000E+00
  0.00000000E+00  0.00000000E+00  0.00000000E+00
  0.00000000E+00  0.00000000E+00  0.00000000E+00
  0.00000000E+00  0.00000000E+00  0.00000000E+00
  0.00000000E+00  0.00000000E+00  0.00000000E+00
  0.00000000E+00  0.00000000E+00  0.00000000E+00
  0.00000000E+00  0.00000000E+00  0.00000000E+00
  0.00000000E+00  0.00000000E+00  0.00000000E+00
  0.00000000E+00  0.00000000E+00  0.00000000E+00
  0.00000000E+00  0.00000000E+00  0.00000000E+00
  0.00000000E+00  0.00000000E+00  0.00000000E+00
  0.00000000E+00  0.00000000E+00  0.00000000E+00
  0.00000000E+00  0.00000000E+00  0.00000000E+00
  0.00000000E+00  0.00000000E+00  0.00000000E+00
  0.00000000E+00  0.00000000E+00  0.00000000E+00
  0.00000000E+00  0.00000000E+00  0.00000000E+00
  0.00000000E+00  0.00000000E+00  0.00000000E+00
  0.00000000E+00  0.00000000E+00  0.00000000E+00
  0.00000000E+00  0.00000000E+00  0.00000000E+00
  0.00000000E+00  0.00000000E+00  0.00000000E+00
  0.00000000E+00  0.00000000E+00  0.00000000E+00
  0.00000000E+00  0.00000000E+00  0.00000000E+00
  0.00000000E+00  0.00000000E+00  0.00000000E+00
  0.00000000E+00  0.00000000E+00  0.00000000E+00
  0.00000000E+00  0.00000000E+00  0.00000000E+00
  0.00000000E+00  0.00000000E+00  0.00000000E+00
  0.00000000E+00  0.00000000E+00  0.00000000E+00
  0.00000000E+00  0.00000000E+00  0.00000000E+00
  0.00000000E+00  0.00000000E+00  0.00000000E+00
  0.00000000E+00  0.00000000E+00  0.00000000E+00
  0.00000000E+00  0.00000000E+00  0.00000000E+00
  0.00000000E+00  0.00000000E+00  0.00000000E+00
