Iron diiron(III) oxide                  
   1.00000000000000     
     8.4562981956569931   -0.0329862129546297   -0.0007140954792144
    -0.0327998737103087    8.4342756711719549    0.0236097692813816
    -0.0005668609298836    0.0236226731141628    8.3434138048550039
   Zn   Fe   Ni   Co   Mn   O 
     2     3     3     8     8    32
Direct
  0.1253684182401578  0.1263463562099501  0.1187965884576298
  0.3757423041036760  0.3796025919435374  0.8796075023432828
  0.4958348991239829  0.0062238686275967 -0.0039228682584866
  0.7512046267743686  0.7393333644748460  0.5007157994589296
  0.3769813220193526  0.8762465227407202  0.3800774437514571
  0.7479067280546040  0.4968251887036976  0.7535953498105074
  0.0025677742327402  0.4954706633466612  0.0004198643569110
  0.2520228187099179  0.7501468743205161  0.0011998568198518
  0.1265440370011977  0.6184740764497780  0.6261897884516250
  0.6192496542138795  0.6255856643531824  0.1201337544653272
  0.7497583842838625  0.2592933200693218 -0.0019425041499047
  0.6249352393027924  0.1249934325128710  0.6239046273940254
  0.2511147801756762 -0.0009187924866802  0.7551688802283735
  0.5008423480214690  0.2518967309298591  0.2483568063411808
  0.5034655280477184  0.4953460061042775  0.5045491233820651
  0.8776317236057498  0.3779529785340835  0.3725244816260330
  0.0016071909651369  0.2548052258430456  0.7494163659611764
  0.0002557595375875  0.7446026146021983  0.2472885206240554
  0.2538131045433288  0.4970758838616686  0.2463817440237417
  0.8738444660359707  0.8786580614720307  0.8792538941187967
  0.7474808774800688  0.0025835469941255  0.2507105854275419
  0.4963614467216984  0.7500242899866822  0.7530613864388364
 -0.0014225040649544  0.0018401214957062  0.4947244760766884
  0.2491523594253825  0.2551030445079054  0.4993092868263861
  0.2444360246179131  0.2660922420396453  0.2646168163787770
  0.7281040486124962  0.7426569683412415  0.7394261060743544
  0.4960402746284086  0.9799914047319717  0.7521302322298578
  0.5177196293490209  0.0018770512258289  0.2537336329638266
  0.9893623051675325  0.7495315816411731  0.4838197349159851
  0.0190821397789002  0.2549463338102906  0.5162034260799212
  0.7574207406878484  0.4805818081617658  0.0029769688667453
  0.2465090363261772  0.5035904946738389  0.0194486848405998
  0.0238594781898001  0.5104023786262696  0.2448895882628556
  0.9919855235308840  0.4803272549606321  0.7583258330900033
  0.5096673320407145  0.2357033448302220 -0.0028359613015905
  0.4947264775249037  0.7704651630133547  0.9822600956501094
  0.2356632286238008  0.0189558814529158  0.4916454242969851
  0.7651540564353486  0.9927091558831665  0.4837199176704254
  0.2676481287415640  0.7554364642014264  0.7526238433514844
  0.7498940203394001  0.2303337950782320  0.2417135321584661
  0.4791381491770491  0.4920708461005343  0.2521793201420800
  0.5028355980696942  0.5208832538170766  0.7526055013330556
  0.9908270027808688  0.2450254507064304  0.9795140596992810
  0.0114483734189271  0.7410408707838935  0.0192629577086976
  0.0064821137042260  0.0209434620352087  0.7277286799323597
  0.9826118895839122  0.9913020112747475  0.2567233978382386
  0.5055587561036797  0.7526337919952111  0.5174352862895359
  0.4736613447030879  0.2477338653851400  0.4964888542635010
  0.7717306152970832  0.2501553321206814  0.7577006657604006
  0.2581807997432372  0.7311547712144442  0.2542324783568073
  0.2550166971396271  0.4811301577993793  0.4830510681104992
  0.7421536729052149  0.5094943287843490  0.5030374223199117
  0.7310866482771778  0.0157291749554123  0.0206785658040224
  0.2661524757464767  0.9964127149040453  0.0033068802093473
  0.7481382638142781  0.7716432529939611  0.2583779290747535
  0.2354418683853823  0.2515337568599279  0.7334583036526713
 
  0.00000000E+00  0.00000000E+00  0.00000000E+00
  0.00000000E+00  0.00000000E+00  0.00000000E+00
  0.00000000E+00  0.00000000E+00  0.00000000E+00
  0.00000000E+00  0.00000000E+00  0.00000000E+00
  0.00000000E+00  0.00000000E+00  0.00000000E+00
  0.00000000E+00  0.00000000E+00  0.00000000E+00
  0.00000000E+00  0.00000000E+00  0.00000000E+00
  0.00000000E+00  0.00000000E+00  0.00000000E+00
  0.00000000E+00  0.00000000E+00  0.00000000E+00
  0.00000000E+00  0.00000000E+00  0.00000000E+00
  0.00000000E+00  0.00000000E+00  0.00000000E+00
  0.00000000E+00  0.00000000E+00  0.00000000E+00
  0.00000000E+00  0.00000000E+00  0.00000000E+00
  0.00000000E+00  0.00000000E+00  0.00000000E+00
  0.00000000E+00  0.00000000E+00  0.00000000E+00
  0.00000000E+00  0.00000000E+00  0.00000000E+00
  0.00000000E+00  0.00000000E+00  0.00000000E+00
  0.00000000E+00  0.00000000E+00  0.00000000E+00
  0.00000000E+00  0.00000000E+00  0.00000000E+00
  0.00000000E+00  0.00000000E+00  0.00000000E+00
  0.00000000E+00  0.00000000E+00  0.00000000E+00
  0.00000000E+00  0.00000000E+00  0.00000000E+00
  0.00000000E+00  0.00000000E+00  0.00000000E+00
  0.00000000E+00  0.00000000E+00  0.00000000E+00
  0.00000000E+00  0.00000000E+00  0.00000000E+00
  0.00000000E+00  0.00000000E+00  0.00000000E+00
  0.00000000E+00  0.00000000E+00  0.00000000E+00
  0.00000000E+00  0.00000000E+00  0.00000000E+00
  0.00000000E+00  0.00000000E+00  0.00000000E+00
  0.00000000E+00  0.00000000E+00  0.00000000E+00
  0.00000000E+00  0.00000000E+00  0.00000000E+00
  0.00000000E+00  0.00000000E+00  0.00000000E+00
  0.00000000E+00  0.00000000E+00  0.00000000E+00
  0.00000000E+00  0.00000000E+00  0.00000000E+00
  0.00000000E+00  0.00000000E+00  0.00000000E+00
  0.00000000E+00  0.00000000E+00  0.00000000E+00
  0.00000000E+00  0.00000000E+00  0.00000000E+00
  0.00000000E+00  0.00000000E+00  0.00000000E+00
  0.00000000E+00  0.00000000E+00  0.00000000E+00
  0.00000000E+00  0.00000000E+00  0.00000000E+00
  0.00000000E+00  0.00000000E+00  0.00000000E+00
  0.00000000E+00  0.00000000E+00  0.00000000E+00
  0.00000000E+00  0.00000000E+00  0.00000000E+00
  0.00000000E+00  0.00000000E+00  0.00000000E+00
  0.00000000E+00  0.00000000E+00  0.00000000E+00
  0.00000000E+00  0.00000000E+00  0.00000000E+00
  0.00000000E+00  0.00000000E+00  0.00000000E+00
  0.00000000E+00  0.00000000E+00  0.00000000E+00
  0.00000000E+00  0.00000000E+00  0.00000000E+00
  0.00000000E+00  0.00000000E+00  0.00000000E+00
  0.00000000E+00  0.00000000E+00  0.00000000E+00
  0.00000000E+00  0.00000000E+00  0.00000000E+00
  0.00000000E+00  0.00000000E+00  0.00000000E+00
  0.00000000E+00  0.00000000E+00  0.00000000E+00
  0.00000000E+00  0.00000000E+00  0.00000000E+00
  0.00000000E+00  0.00000000E+00  0.00000000E+00
