Iron diiron(III) oxide                  
   1.00000000000000     
     8.3360148163570447   -0.0030746467726048    0.0127433116381737
    -0.0030512212666810    8.4408717036558727   -0.0072143282491270
     0.0127857367715472   -0.0072891635943382    8.2944663842823605
   Zn   Fe   Ni   Co   Mn   O 
     2     3     3     8     8    32
Direct
  0.3738429928141491  0.3767258933173133  0.8768167912652706
  0.6261234571775985  0.6202389670042896  0.1227030790219474
  0.0000018395085592  0.7494502059413365  0.2481228864733775
  0.1257330773571595  0.1236713172089962  0.1245231396414361
  0.1266681489460195  0.6233007236778624  0.6253668771557604
  0.0022062180999744 -0.0014809841623868  0.5015347658921242
  0.5010414324953294 -0.0003209541904221  0.0002596099644943
  0.7509245904092827  0.2498105467224588 -0.0003810412760445
  0.7476204043863682  0.4974997149855707  0.7551634671991990
  0.2475788927384804  0.0006542211955903  0.7538697999272733
  0.3722785429527372  0.8791024025634090  0.3722092010540170
  0.2536020101294847  0.5025678965491085  0.2468639481493993
  0.2518031872912278  0.7506878570440345  0.0050344840242666
  0.4976800662419763  0.2515549922015500  0.2407852183558389
  0.0061293084488310  0.2490193398645878  0.7531304856672908
  0.8764245848964867  0.8751764045675982  0.8746189126360131
  0.8750709020351902  0.3751911284706193  0.3730565227502683
  0.2484441850730866  0.2505884339357611  0.5030203839162807
  0.6235585512130309  0.1261880544088741  0.6312418199275864
  0.4967267026777409  0.5026942440210760  0.4975058244100725
  0.7464005876177884  0.7493517837963614  0.4973076162815731
  0.0023674592571924  0.5044584431289436  0.0001698014712533
  0.4973922149253847  0.7456902901798894  0.7515617012547684
  0.7503477599076860 -0.0040466704674127  0.2449732981403877
  0.2404767064341994  0.2566435381045966  0.2654925220680029
  0.7307817715687847  0.7483333930229422  0.7308451469299376
  0.4881149529742975  0.9737811679223178  0.7584521960480561
  0.5211827771161920  0.0028205062824717  0.2432964164613052
  0.9821195439277860  0.7488640636825297  0.4897799443426457
  0.0162924501123094  0.2445313968350901  0.5168900027903792
  0.7708896928381983  0.4939747181108101 -0.0001760802714060
  0.2328261050688695  0.5097625714919640 -0.0003760264572362
  0.0063924071108566  0.5186518679989538  0.2313098718167098
  0.9978078489234711  0.5030148154242906  0.7651567453828445
  0.5088700172645876  0.2431413576063720 -0.0028446519658593
  0.4987221557777193  0.7501682100604976  0.9805203196430815
  0.2482892086187332  0.0245371232667221  0.5074266440450610
  0.7558137751229086  0.9761223571398104  0.4823618169266111
  0.2662906747874359  0.7535557509352103  0.7469349749181480
  0.7487211525840544  0.2200771052375055  0.2463891123221361
  0.4960683340544921  0.4984914386539660  0.2667346036445485
  0.5001197479780355  0.5157548520938439  0.7346784320912001
  0.0029001212749379  0.2715846387951579  0.9933748086359373
  0.0017848557468995  0.7331611629925494  0.0147009740449114
  0.0116715934838943  0.0066033770165932  0.7430171504314290
  0.9880117904852401  0.9824342524331240  0.2533809038030730
  0.5122382627056998  0.7405096217141519  0.5110273980237060
  0.4807503796362704  0.2690667092140017  0.4963551656716521
  0.7777585891889804  0.2584982883886082  0.7561239219213156
  0.2285251447452924  0.7429114138263300  0.2528598734794683
  0.2565302130098883  0.4837760422116714  0.4991432850400919
  0.7328327840287833  0.5246735124584404  0.5035657271870476
  0.7466870732152321  0.0051682794726184  0.0166593696032043
  0.2516333792686083  0.9932187057318191  0.0002119937438951
  0.7602274279358573  0.7597199323512394  0.2608663637039836
  0.2387019464107203  0.2486735775587921  0.7363824806702636
 
  0.00000000E+00  0.00000000E+00  0.00000000E+00
  0.00000000E+00  0.00000000E+00  0.00000000E+00
  0.00000000E+00  0.00000000E+00  0.00000000E+00
  0.00000000E+00  0.00000000E+00  0.00000000E+00
  0.00000000E+00  0.00000000E+00  0.00000000E+00
  0.00000000E+00  0.00000000E+00  0.00000000E+00
  0.00000000E+00  0.00000000E+00  0.00000000E+00
  0.00000000E+00  0.00000000E+00  0.00000000E+00
  0.00000000E+00  0.00000000E+00  0.00000000E+00
  0.00000000E+00  0.00000000E+00  0.00000000E+00
  0.00000000E+00  0.00000000E+00  0.00000000E+00
  0.00000000E+00  0.00000000E+00  0.00000000E+00
  0.00000000E+00  0.00000000E+00  0.00000000E+00
  0.00000000E+00  0.00000000E+00  0.00000000E+00
  0.00000000E+00  0.00000000E+00  0.00000000E+00
  0.00000000E+00  0.00000000E+00  0.00000000E+00
  0.00000000E+00  0.00000000E+00  0.00000000E+00
  0.00000000E+00  0.00000000E+00  0.00000000E+00
  0.00000000E+00  0.00000000E+00  0.00000000E+00
  0.00000000E+00  0.00000000E+00  0.00000000E+00
  0.00000000E+00  0.00000000E+00  0.00000000E+00
  0.00000000E+00  0.00000000E+00  0.00000000E+00
  0.00000000E+00  0.00000000E+00  0.00000000E+00
  0.00000000E+00  0.00000000E+00  0.00000000E+00
  0.00000000E+00  0.00000000E+00  0.00000000E+00
  0.00000000E+00  0.00000000E+00  0.00000000E+00
  0.00000000E+00  0.00000000E+00  0.00000000E+00
  0.00000000E+00  0.00000000E+00  0.00000000E+00
  0.00000000E+00  0.00000000E+00  0.00000000E+00
  0.00000000E+00  0.00000000E+00  0.00000000E+00
  0.00000000E+00  0.00000000E+00  0.00000000E+00
  0.00000000E+00  0.00000000E+00  0.00000000E+00
  0.00000000E+00  0.00000000E+00  0.00000000E+00
  0.00000000E+00  0.00000000E+00  0.00000000E+00
  0.00000000E+00  0.00000000E+00  0.00000000E+00
  0.00000000E+00  0.00000000E+00  0.00000000E+00
  0.00000000E+00  0.00000000E+00  0.00000000E+00
  0.00000000E+00  0.00000000E+00  0.00000000E+00
  0.00000000E+00  0.00000000E+00  0.00000000E+00
  0.00000000E+00  0.00000000E+00  0.00000000E+00
  0.00000000E+00  0.00000000E+00  0.00000000E+00
  0.00000000E+00  0.00000000E+00  0.00000000E+00
  0.00000000E+00  0.00000000E+00  0.00000000E+00
  0.00000000E+00  0.00000000E+00  0.00000000E+00
  0.00000000E+00  0.00000000E+00  0.00000000E+00
  0.00000000E+00  0.00000000E+00  0.00000000E+00
  0.00000000E+00  0.00000000E+00  0.00000000E+00
  0.00000000E+00  0.00000000E+00  0.00000000E+00
  0.00000000E+00  0.00000000E+00  0.00000000E+00
  0.00000000E+00  0.00000000E+00  0.00000000E+00
  0.00000000E+00  0.00000000E+00  0.00000000E+00
  0.00000000E+00  0.00000000E+00  0.00000000E+00
  0.00000000E+00  0.00000000E+00  0.00000000E+00
  0.00000000E+00  0.00000000E+00  0.00000000E+00
  0.00000000E+00  0.00000000E+00  0.00000000E+00
  0.00000000E+00  0.00000000E+00  0.00000000E+00
