Iron diiron(III) oxide                  
   1.00000000000000     
     8.4105297754400503    0.0221083765324034   -0.0034342125224269
     0.0221370963754364    8.4686017622032654    0.0060050689499185
    -0.0035410556537046    0.0060219835500974    8.3883762762468592
   Zn   Fe   Ni   Co   Mn   O 
     2     3     3     8     8    32
Direct
  0.8823768118162344  0.3736344023356311  0.3738484387952761
  0.1194270407273782  0.1288122557521512  0.1270413160807697
 -0.0034074629692589  0.2523027337658112  0.7513648981852230
  0.7485117430057909  0.2579133524682792  0.0036043889002674
  0.0022010828589020  0.5018009891329429  0.0048843143691764
 -0.0013852166473249  0.7475234518795406  0.2463905657211090
  0.4959162207663388  0.2525406549642093  0.2490527638522406
  0.2500980188949614  0.7489550675353328  0.0025640059085391
  0.5024760022977702  0.4985226937341873  0.4965610314830618
  0.2500714024067784  0.4963583444850253  0.2484821881248858
  0.8798063722147147  0.8728238908379389  0.8773186187201110
  0.0026250708602432  0.0007395341824454  0.4959378117943652
  0.5036259228707898  0.7463604354562835  0.7539110465446809
  0.3784609604351252  0.3744977100285118  0.8766446390997286
  0.6196778922706454  0.6265376342411973  0.1260710411616844
  0.7448421434634404  0.5031699303915286  0.7467009022527709
  0.3744210838249970  0.8705492978672448  0.3737075332604987
  0.6198797383517891  0.1231800158869900  0.6204553750948062
  0.7532389126643365  0.7452415703317390  0.4949111182364356
  0.1227806077826140  0.6293812601500121  0.6244818807216461
  0.7542622794123149  0.0005753432573905  0.2471744738816945
  0.2502895681781129  0.0027471191693629  0.7563329625051300
  0.4984408459494404  0.0004933590493728  0.0031519986300677
  0.2477158316148346  0.2515604887663214  0.4981899180228200
  0.2483375669150868  0.2522890505299634  0.2682964906239005
  0.7567725354456335  0.7425056047878601  0.7256424369977054
  0.4814445789525572  0.9973509806389449  0.7730391475151983
  0.5200695607864234  0.0052831401783984  0.2332019850810824
  0.9840645673361246  0.7572205565609414  0.4770415852249847
  0.0140615413363088  0.2445442120409821  0.5110948006273136
  0.7568392810834703  0.4907623473601850  0.9932974622456325
  0.2397874660035436  0.5055041343897819  0.0081113754800894
  0.0123700702734660  0.5000455216753065  0.2412738159017695
  0.9821531852887646  0.4887371443724376  0.7637455320079043
  0.5106496604619344  0.2294301939289772  0.0063706404472594
  0.4949847341631608  0.7745856612516058  0.9969843065612970
  0.2521030301239027  0.0179492849287457  0.5238702738744713
  0.7527134450652462  0.9791566753977253  0.4771454343605738
  0.2563156872724647  0.7775320024987028  0.7570984712379031
  0.7469117811919299  0.2308792741499253  0.2460517273081334
  0.4780570960639594  0.4934102466010392  0.2504617138546258
  0.5219359125068525  0.5037773909427299  0.7462019583434021
  0.9898506104643980  0.2573823272975854  0.9913528667768631
  0.0053734867251986  0.7383476344922463  0.0170581893890688
  0.0207768498574204  0.0111425354551790  0.7498204563490578
  0.9806854220852151  0.9943702724568654  0.2470953765212607
  0.5259797616170248  0.7417265871703215  0.5077707106727271
  0.4737637347017565  0.2577549664460294  0.4902281475545087
  0.7610148000475134  0.2588261224787543  0.7607934841444672
  0.2296476716927982  0.7348331214530721  0.2455144828298770
  0.2504957940782391  0.4773832042992623  0.4898653855458838
  0.7549191086526347  0.5169647018245507  0.5030158751370332
  0.7339565800820215  0.0077977494808762  0.0128705480877336
  0.2654569028826473  0.0021468994574062  0.9914435303053631
  0.7602755469454938  0.7661321557605273  0.2598529969171536
  0.2418791568458422  0.2380067640236177  0.7356055607287657
 
  0.00000000E+00  0.00000000E+00  0.00000000E+00
  0.00000000E+00  0.00000000E+00  0.00000000E+00
  0.00000000E+00  0.00000000E+00  0.00000000E+00
  0.00000000E+00  0.00000000E+00  0.00000000E+00
  0.00000000E+00  0.00000000E+00  0.00000000E+00
  0.00000000E+00  0.00000000E+00  0.00000000E+00
  0.00000000E+00  0.00000000E+00  0.00000000E+00
  0.00000000E+00  0.00000000E+00  0.00000000E+00
  0.00000000E+00  0.00000000E+00  0.00000000E+00
  0.00000000E+00  0.00000000E+00  0.00000000E+00
  0.00000000E+00  0.00000000E+00  0.00000000E+00
  0.00000000E+00  0.00000000E+00  0.00000000E+00
  0.00000000E+00  0.00000000E+00  0.00000000E+00
  0.00000000E+00  0.00000000E+00  0.00000000E+00
  0.00000000E+00  0.00000000E+00  0.00000000E+00
  0.00000000E+00  0.00000000E+00  0.00000000E+00
  0.00000000E+00  0.00000000E+00  0.00000000E+00
  0.00000000E+00  0.00000000E+00  0.00000000E+00
  0.00000000E+00  0.00000000E+00  0.00000000E+00
  0.00000000E+00  0.00000000E+00  0.00000000E+00
  0.00000000E+00  0.00000000E+00  0.00000000E+00
  0.00000000E+00  0.00000000E+00  0.00000000E+00
  0.00000000E+00  0.00000000E+00  0.00000000E+00
  0.00000000E+00  0.00000000E+00  0.00000000E+00
  0.00000000E+00  0.00000000E+00  0.00000000E+00
  0.00000000E+00  0.00000000E+00  0.00000000E+00
  0.00000000E+00  0.00000000E+00  0.00000000E+00
  0.00000000E+00  0.00000000E+00  0.00000000E+00
  0.00000000E+00  0.00000000E+00  0.00000000E+00
  0.00000000E+00  0.00000000E+00  0.00000000E+00
  0.00000000E+00  0.00000000E+00  0.00000000E+00
  0.00000000E+00  0.00000000E+00  0.00000000E+00
  0.00000000E+00  0.00000000E+00  0.00000000E+00
  0.00000000E+00  0.00000000E+00  0.00000000E+00
  0.00000000E+00  0.00000000E+00  0.00000000E+00
  0.00000000E+00  0.00000000E+00  0.00000000E+00
  0.00000000E+00  0.00000000E+00  0.00000000E+00
  0.00000000E+00  0.00000000E+00  0.00000000E+00
  0.00000000E+00  0.00000000E+00  0.00000000E+00
  0.00000000E+00  0.00000000E+00  0.00000000E+00
  0.00000000E+00  0.00000000E+00  0.00000000E+00
  0.00000000E+00  0.00000000E+00  0.00000000E+00
  0.00000000E+00  0.00000000E+00  0.00000000E+00
  0.00000000E+00  0.00000000E+00  0.00000000E+00
  0.00000000E+00  0.00000000E+00  0.00000000E+00
  0.00000000E+00  0.00000000E+00  0.00000000E+00
  0.00000000E+00  0.00000000E+00  0.00000000E+00
  0.00000000E+00  0.00000000E+00  0.00000000E+00
  0.00000000E+00  0.00000000E+00  0.00000000E+00
  0.00000000E+00  0.00000000E+00  0.00000000E+00
  0.00000000E+00  0.00000000E+00  0.00000000E+00
  0.00000000E+00  0.00000000E+00  0.00000000E+00
  0.00000000E+00  0.00000000E+00  0.00000000E+00
  0.00000000E+00  0.00000000E+00  0.00000000E+00
  0.00000000E+00  0.00000000E+00  0.00000000E+00
  0.00000000E+00  0.00000000E+00  0.00000000E+00
