Iron diiron(III) oxide                  
   1.00000000000000     
     8.4318400524721611   -0.0141576060489043    0.0169264098453907
    -0.0141141730766401    8.3849269923704917   -0.0031448690687984
     0.0169475178830880   -0.0032164154815835    8.4432691414103491
   Zn   Fe   Ni   Co   Mn   O 
     2     3     3     8     8    32
Direct
  0.8772091012436252  0.8764290966447158  0.8742798058311224
  0.1180163774866318  0.6237700654757881  0.6282938369592755
  0.5067862908065605 -0.0055599376049858 -0.0029160434272710
 -0.0015919614732398  0.7485670208560329  0.2413209832445216
  0.2491658603621270 -0.0094832794467241  0.7533850511452439
  0.7494493099724092 -0.0009979999015816  0.2472951408221172
 -0.0034023408005929  0.5033653784785129 -0.0018985638909381
 -0.0040974481551631  0.2509893505012216  0.7493256360933130
  0.7550415697537771  0.2515117133032964 -0.0041520398838765
  0.8764753014472311  0.3758383783228855  0.3756874300294544
  0.2480611092526731  0.7470505002135758 -0.0029400127427838
  0.4988490733636298  0.5048664771970404  0.5031555268389369
  0.6237470531434921  0.6240417553845636  0.1246398373742848
  0.4991545759651781  0.7506520630235674  0.7523164625165993
  0.3797358338852902  0.8740663728488273  0.3753476175530736
  0.6251326133982984  0.1266791044606460  0.6250147196924724
  0.2484117336633304  0.5007631143751272  0.2523080640595344
  0.5029000840112626  0.2496544216765405  0.2513790561182246
  0.7534405620635678  0.7496539704540903  0.5021786391257157
 -0.0015356991442822 -0.0034178092551328  0.5031845732326523
  0.7550587900529906  0.5034905960508841  0.7502671185963348
  0.3763379810293723  0.3751209352460977  0.8737599161724585
  0.1196283922062674  0.1242466823572647  0.1237926048432679
  0.2467329171898406  0.2490667975951895  0.4998947923412675
  0.2653094615545762  0.2634369112027838  0.2641419151789683
  0.7538517876109734  0.7370075231442786  0.7332478054763475
  0.4871849078332120  0.0027813929304871  0.7599249998706219
  0.5052305190800990  0.0207700688958314  0.2418989054335812
  0.9866374570769298  0.7643953606989704  0.4940596988557214
  0.0144405010330342  0.2293678780284955  0.4995982185644601
  0.7521021717617595  0.4930980802411032  0.9783805867539331
  0.2405925760139148  0.5016597638293643  0.0275108399914055
  0.0192163079710196  0.5074421365683817  0.2476459291516187
  0.9835537346630960  0.4945973256325868  0.7541760583075071
  0.5175068084358648  0.2426538027739086  0.0237955200482515
  0.4928178086440329  0.7620205537222027  0.9983598568924954
  0.2319822593923664  0.0144177346462695  0.5030923612555452
  0.7684572010812362  0.9840913549264940  0.4981063858100176
  0.2542496193480253  0.7568467651832895  0.7436375371492966
  0.7309251988812038  0.2486896357843411  0.2446951918399353
  0.4817254672351095  0.4828395399179607  0.2572710632806109
  0.5278413847606731  0.5043372968578419  0.7394302782784413
  0.9763271953042307  0.2596761949734359  0.9904951585148190
  0.0023539944380450  0.7515797120569631  0.0131274870925453
  0.0070525903138742  0.0039235147119290  0.7312113743757275
  0.9921719208495003  0.9869386723490862  0.2758962773450523
  0.5282591439045494  0.7490676750173832  0.5018158320516996
  0.4791752661663015  0.2508566430055922  0.4834331782437595
  0.7520318060071849  0.2727293327660041  0.7552622099047079
  0.2399352122609480  0.7283470684526379  0.2561643256452684
  0.2457460392274117  0.4802340040034440  0.4878712232363471
  0.7543087623841456  0.5188929043001962  0.5165475402171215
  0.7451561170064126  0.0115898695524845  0.0032473472086206
  0.2644949615440591  0.9959927385261763  0.9842731454305987
  0.7604252779592604  0.7490988132718029  0.2726980291987011
  0.2402294595326735  0.2402549637708332  0.7240635667512709
 
  0.00000000E+00  0.00000000E+00  0.00000000E+00
  0.00000000E+00  0.00000000E+00  0.00000000E+00
  0.00000000E+00  0.00000000E+00  0.00000000E+00
  0.00000000E+00  0.00000000E+00  0.00000000E+00
  0.00000000E+00  0.00000000E+00  0.00000000E+00
  0.00000000E+00  0.00000000E+00  0.00000000E+00
  0.00000000E+00  0.00000000E+00  0.00000000E+00
  0.00000000E+00  0.00000000E+00  0.00000000E+00
  0.00000000E+00  0.00000000E+00  0.00000000E+00
  0.00000000E+00  0.00000000E+00  0.00000000E+00
  0.00000000E+00  0.00000000E+00  0.00000000E+00
  0.00000000E+00  0.00000000E+00  0.00000000E+00
  0.00000000E+00  0.00000000E+00  0.00000000E+00
  0.00000000E+00  0.00000000E+00  0.00000000E+00
  0.00000000E+00  0.00000000E+00  0.00000000E+00
  0.00000000E+00  0.00000000E+00  0.00000000E+00
  0.00000000E+00  0.00000000E+00  0.00000000E+00
  0.00000000E+00  0.00000000E+00  0.00000000E+00
  0.00000000E+00  0.00000000E+00  0.00000000E+00
  0.00000000E+00  0.00000000E+00  0.00000000E+00
  0.00000000E+00  0.00000000E+00  0.00000000E+00
  0.00000000E+00  0.00000000E+00  0.00000000E+00
  0.00000000E+00  0.00000000E+00  0.00000000E+00
  0.00000000E+00  0.00000000E+00  0.00000000E+00
  0.00000000E+00  0.00000000E+00  0.00000000E+00
  0.00000000E+00  0.00000000E+00  0.00000000E+00
  0.00000000E+00  0.00000000E+00  0.00000000E+00
  0.00000000E+00  0.00000000E+00  0.00000000E+00
  0.00000000E+00  0.00000000E+00  0.00000000E+00
  0.00000000E+00  0.00000000E+00  0.00000000E+00
  0.00000000E+00  0.00000000E+00  0.00000000E+00
  0.00000000E+00  0.00000000E+00  0.00000000E+00
  0.00000000E+00  0.00000000E+00  0.00000000E+00
  0.00000000E+00  0.00000000E+00  0.00000000E+00
  0.00000000E+00  0.00000000E+00  0.00000000E+00
  0.00000000E+00  0.00000000E+00  0.00000000E+00
  0.00000000E+00  0.00000000E+00  0.00000000E+00
  0.00000000E+00  0.00000000E+00  0.00000000E+00
  0.00000000E+00  0.00000000E+00  0.00000000E+00
  0.00000000E+00  0.00000000E+00  0.00000000E+00
  0.00000000E+00  0.00000000E+00  0.00000000E+00
  0.00000000E+00  0.00000000E+00  0.00000000E+00
  0.00000000E+00  0.00000000E+00  0.00000000E+00
  0.00000000E+00  0.00000000E+00  0.00000000E+00
  0.00000000E+00  0.00000000E+00  0.00000000E+00
  0.00000000E+00  0.00000000E+00  0.00000000E+00
  0.00000000E+00  0.00000000E+00  0.00000000E+00
  0.00000000E+00  0.00000000E+00  0.00000000E+00
  0.00000000E+00  0.00000000E+00  0.00000000E+00
  0.00000000E+00  0.00000000E+00  0.00000000E+00
  0.00000000E+00  0.00000000E+00  0.00000000E+00
  0.00000000E+00  0.00000000E+00  0.00000000E+00
  0.00000000E+00  0.00000000E+00  0.00000000E+00
  0.00000000E+00  0.00000000E+00  0.00000000E+00
  0.00000000E+00  0.00000000E+00  0.00000000E+00
  0.00000000E+00  0.00000000E+00  0.00000000E+00
