Iron diiron(III) oxide                  
   1.00000000000000     
     8.4065700660621125    0.0126675278339891    0.0130975902369189
     0.0125339184850044    8.3499924076964067   -0.0013472115352933
     0.0129400690254212   -0.0012375718651395    8.3799419004883777
   Zn   Fe   Ni   Co   Mn   O 
     2     3     3     8     8    32
Direct
  0.6300686013250216  0.1279025948439709  0.6255635584598940
  0.3671141097586248  0.3757348503564494  0.8686177542892266
  0.8769630124856257  0.8757441828391855  0.8715528204708352
 -0.0042665447601795  0.2492933723517967  0.7508884539694095
  0.7500952946944522  0.4958679851783538  0.7544778252344696
  0.6288754379812588  0.6206520851259364  0.1296657971694018
  0.2562089131447426  0.5008626117658623  0.2518321692223636
  0.2510955260457240  0.2516422376672711  0.5029588900521796
  0.2498731702803416  0.0070779621329944  0.7460734609968454
  0.7523733104696665  0.7507788532144009  0.5017635919344523
  0.0062356410948491  0.4943424419826236 -0.0001933916867233
  0.4944767194858606  0.2485954306700873  0.2511633843792849
  0.1243717432612649  0.6174948041037623  0.6278434638540290
  0.3707798436387931  0.8769317234348555  0.3737320663471509
  0.1292317842407124  0.1300791497862814  0.1289510043911421
  0.7456947368483646 -0.0022008907183566  0.2513029358655723
  0.4969472332128968  0.7499679234774947  0.7464939838816304
  0.0004508088005036  0.0031960654315500  0.5004012006224045
  0.5005377160226788  0.4959459542283435  0.5049435154165699
  0.8716100998898668  0.3749639763788445  0.3708188103710578
  0.2495115044891755  0.7508067735077517 -0.0015560286114437
  0.4965433759589532  0.0018610179261590 -0.0058482528573055
  0.0047625910255177  0.7521790913678107  0.2520619443284835
  0.7476664887042047  0.2489323254560808 -0.0069711192634635
  0.2580390509855342  0.2619046627589477  0.2591532897289348
  0.7565971589260668  0.7297558923211380  0.7576937248598470
  0.4996622211825255  0.9860020395008118  0.7592895832276286
  0.5037783386560454 -0.0022221042601608  0.2215394227404704
  0.0037564659191963  0.7654484635433653  0.4819023994253285
  0.0045682629387342  0.2326710835833816  0.5173689998832466
  0.7506839707929137  0.4778461974115085  0.9874534314205793
  0.2516746596323334  0.5227397896614107  0.0037264119803420
  0.0105804630310882  0.5260027505127914  0.2417365706035009
  0.9798309234037322  0.4813362659904294  0.7555028685831243
  0.5121936012940781  0.2321569874291229 -0.0094728525163217
  0.4823491690568763  0.7653411970735591  0.9843582177253066
  0.2287294984618654  0.0053786129302151  0.5067503584430578
  0.7684887608089536  0.9963679806775376  0.4990612090843848
  0.2419967836160780  0.7590523347003886  0.7735653399674469
  0.7406903336329255  0.2400627420858308  0.2185936716142253
  0.5037344832265929  0.4984459787876835  0.2779759167879546
  0.5122244323654681  0.5116124376041881  0.7417159927676115
  0.9775657127169799  0.2458186204146660  0.9854382380241653
  0.0168749606920554  0.7595836992322434  0.0144988938381527
 -0.0052564629666530  0.0117392535739401  0.7348448585363357
 -0.0013368359393369  0.9878867738841633  0.2696233047300991
  0.5014613654003922  0.7352188793336478  0.5161665903400237
  0.4981342910748371  0.2664789511670251  0.5040082100235910
  0.7610029312246297  0.2604120055384156  0.7611205590589475
  0.2361170499871246  0.7484456660720273  0.2305683923920814
  0.2733589443555448  0.4955881202255155  0.4978605088318594
  0.7323433227251231  0.5043405699330229  0.5243773595867747
  0.7325662594610239  0.0105423019886749 -0.0101843930026118
  0.2688195580427596  0.9874069251169267  0.9948096013651353
  0.7766863832284921  0.7514540414084945  0.2502950061019785
  0.2248628239671007  0.2465283572895764  0.7521204750093303
 
  0.00000000E+00  0.00000000E+00  0.00000000E+00
  0.00000000E+00  0.00000000E+00  0.00000000E+00
  0.00000000E+00  0.00000000E+00  0.00000000E+00
  0.00000000E+00  0.00000000E+00  0.00000000E+00
  0.00000000E+00  0.00000000E+00  0.00000000E+00
  0.00000000E+00  0.00000000E+00  0.00000000E+00
  0.00000000E+00  0.00000000E+00  0.00000000E+00
  0.00000000E+00  0.00000000E+00  0.00000000E+00
  0.00000000E+00  0.00000000E+00  0.00000000E+00
  0.00000000E+00  0.00000000E+00  0.00000000E+00
  0.00000000E+00  0.00000000E+00  0.00000000E+00
  0.00000000E+00  0.00000000E+00  0.00000000E+00
  0.00000000E+00  0.00000000E+00  0.00000000E+00
  0.00000000E+00  0.00000000E+00  0.00000000E+00
  0.00000000E+00  0.00000000E+00  0.00000000E+00
  0.00000000E+00  0.00000000E+00  0.00000000E+00
  0.00000000E+00  0.00000000E+00  0.00000000E+00
  0.00000000E+00  0.00000000E+00  0.00000000E+00
  0.00000000E+00  0.00000000E+00  0.00000000E+00
  0.00000000E+00  0.00000000E+00  0.00000000E+00
  0.00000000E+00  0.00000000E+00  0.00000000E+00
  0.00000000E+00  0.00000000E+00  0.00000000E+00
  0.00000000E+00  0.00000000E+00  0.00000000E+00
  0.00000000E+00  0.00000000E+00  0.00000000E+00
  0.00000000E+00  0.00000000E+00  0.00000000E+00
  0.00000000E+00  0.00000000E+00  0.00000000E+00
  0.00000000E+00  0.00000000E+00  0.00000000E+00
  0.00000000E+00  0.00000000E+00  0.00000000E+00
  0.00000000E+00  0.00000000E+00  0.00000000E+00
  0.00000000E+00  0.00000000E+00  0.00000000E+00
  0.00000000E+00  0.00000000E+00  0.00000000E+00
  0.00000000E+00  0.00000000E+00  0.00000000E+00
  0.00000000E+00  0.00000000E+00  0.00000000E+00
  0.00000000E+00  0.00000000E+00  0.00000000E+00
  0.00000000E+00  0.00000000E+00  0.00000000E+00
  0.00000000E+00  0.00000000E+00  0.00000000E+00
  0.00000000E+00  0.00000000E+00  0.00000000E+00
  0.00000000E+00  0.00000000E+00  0.00000000E+00
  0.00000000E+00  0.00000000E+00  0.00000000E+00
  0.00000000E+00  0.00000000E+00  0.00000000E+00
  0.00000000E+00  0.00000000E+00  0.00000000E+00
  0.00000000E+00  0.00000000E+00  0.00000000E+00
  0.00000000E+00  0.00000000E+00  0.00000000E+00
  0.00000000E+00  0.00000000E+00  0.00000000E+00
  0.00000000E+00  0.00000000E+00  0.00000000E+00
  0.00000000E+00  0.00000000E+00  0.00000000E+00
  0.00000000E+00  0.00000000E+00  0.00000000E+00
  0.00000000E+00  0.00000000E+00  0.00000000E+00
  0.00000000E+00  0.00000000E+00  0.00000000E+00
  0.00000000E+00  0.00000000E+00  0.00000000E+00
  0.00000000E+00  0.00000000E+00  0.00000000E+00
  0.00000000E+00  0.00000000E+00  0.00000000E+00
  0.00000000E+00  0.00000000E+00  0.00000000E+00
  0.00000000E+00  0.00000000E+00  0.00000000E+00
  0.00000000E+00  0.00000000E+00  0.00000000E+00
  0.00000000E+00  0.00000000E+00  0.00000000E+00
