Iron diiron(III) oxide                  
   1.00000000000000     
     8.3965540147123985   -0.0288277136423229   -0.0115942264650200
    -0.0289592861407732    8.3893325543970096    0.0103211912424107
    -0.0115900127615576    0.0102837582578259    8.4227860520530626
   Zn   Fe   Ni   Co   Mn   O 
     2     3     3     8     8    32
Direct
  0.6293769809603672  0.6185019947517164  0.1202081421155156
  0.8714266393231088  0.3739212634308692  0.3833144610777340
  0.8717427583658673  0.8741732845957593  0.8834592468988406
  0.7549548430403764  0.2559537729765812  0.0011206547316387
  0.1279062098918434  0.6291559021857894  0.6200445438646619
  0.2485971620241127  0.0017759785954429  0.7513232489271258
  0.2447908496160305  0.2506944221764100  0.4985875545984383
  0.7502483827352634  0.7480265472942865  0.4976537638155986
  0.2464042340625576  0.4977990508844897  0.2532466898600901
  0.0013875148738344  0.0021755458861831  0.4968991305671688
  0.3683646181911366  0.8817862675795098  0.3812033162385318
  0.0025589361960480  0.2473147315334179  0.7457524053490286
  0.1292712901139945  0.1191837852260723  0.1213325814452195
  0.5036520889550222 -0.0043191615693692  0.0032220168677653
  0.5005613514551429  0.5054841809216806  0.4933253277692046
  0.0020267947196067  0.4943476122940789  0.0014790317373754
  0.4981391895755360  0.2533131817327272  0.2466162319977904
  0.3745075128544087  0.3739470333295087  0.8768230174497711
  0.2557907421289616  0.7531068791138678  0.0071793318528163
  0.5043097268251289  0.7538493982448878  0.7522672584083805
  0.7518226484887672  0.5032348914590413  0.7464101149324008
 -0.0053121141432463  0.7433996794678537  0.2523226623590873
  0.7508122953702353 -0.0029930392402072  0.2494304561172451
  0.6241009551467571  0.1253044324851455  0.6182911724972038
  0.2678767458689710  0.2608399570635855  0.2475351840854466
  0.7381300257380135  0.7415255871752912  0.7478079016034596
  0.4981510180488744  0.9834845197647921  0.7738803698381005
  0.5117992847940750  0.0139073661058308  0.2376673768678761
  0.9998331058322895  0.7620381496582057  0.4838367660694704
 -0.0007457661171557  0.2307572408678332  0.5031134433327762
  0.7514067611784179  0.4929497523657542  0.9773823974392865
  0.2455689029600074  0.5237709619262940  0.0211012996286954
  0.0078578021845641  0.5133351502488003  0.2555552424051791
  0.9857167237126102  0.5089900122815602  0.7483301874976526
  0.5102282985205051  0.2248940783960934  0.0154394052834296
  0.5063062540234641  0.7639339061378416  0.9865879091793418
  0.2271900639494933  0.0076542015236506  0.5099348603580482
  0.7694230008687919  0.9913702056703327  0.4783455202823768
  0.2707975418858238  0.7459702930495589  0.7602623660091131
  0.7305731634232994  0.2573782774356378  0.2392244949195423
  0.4875839439921204  0.4849355438461385  0.2426439152885874
  0.5203124124977294  0.5216002020927515  0.7455330457291934
  0.9878759340031421  0.2514509354946284  0.9943105983860895
 -0.0016767033912124  0.7456668725154869  0.0217015505250920
 -0.0001659213355515 -0.0101737263944256  0.7501549826743795
  0.9844520015487367  0.9749449767785549  0.2468350620248400
  0.5067694631421247  0.7551812063341730  0.5239577120534723
  0.4896409320616641  0.2588434156510069  0.4714134978690553
  0.7520790439447085  0.2759638818511549  0.7605195293736391
  0.2289848004428297  0.7436600298084862  0.2452090510831156
  0.2528456474905491  0.5005547143271170  0.4853882412224927
  0.7456291838463439  0.5065570557406156  0.5205644293346077
  0.7356202372190883  0.0078588939237069  0.0122596660883109
  0.2759603215828820  0.9817330709701649  0.9973931701774684
  0.7660767637110154  0.7401501432637513  0.2561029617749132
  0.2404574016009238  0.2391354887698832  0.7384955001163176
 
  0.00000000E+00  0.00000000E+00  0.00000000E+00
  0.00000000E+00  0.00000000E+00  0.00000000E+00
  0.00000000E+00  0.00000000E+00  0.00000000E+00
  0.00000000E+00  0.00000000E+00  0.00000000E+00
  0.00000000E+00  0.00000000E+00  0.00000000E+00
  0.00000000E+00  0.00000000E+00  0.00000000E+00
  0.00000000E+00  0.00000000E+00  0.00000000E+00
  0.00000000E+00  0.00000000E+00  0.00000000E+00
  0.00000000E+00  0.00000000E+00  0.00000000E+00
  0.00000000E+00  0.00000000E+00  0.00000000E+00
  0.00000000E+00  0.00000000E+00  0.00000000E+00
  0.00000000E+00  0.00000000E+00  0.00000000E+00
  0.00000000E+00  0.00000000E+00  0.00000000E+00
  0.00000000E+00  0.00000000E+00  0.00000000E+00
  0.00000000E+00  0.00000000E+00  0.00000000E+00
  0.00000000E+00  0.00000000E+00  0.00000000E+00
  0.00000000E+00  0.00000000E+00  0.00000000E+00
  0.00000000E+00  0.00000000E+00  0.00000000E+00
  0.00000000E+00  0.00000000E+00  0.00000000E+00
  0.00000000E+00  0.00000000E+00  0.00000000E+00
  0.00000000E+00  0.00000000E+00  0.00000000E+00
  0.00000000E+00  0.00000000E+00  0.00000000E+00
  0.00000000E+00  0.00000000E+00  0.00000000E+00
  0.00000000E+00  0.00000000E+00  0.00000000E+00
  0.00000000E+00  0.00000000E+00  0.00000000E+00
  0.00000000E+00  0.00000000E+00  0.00000000E+00
  0.00000000E+00  0.00000000E+00  0.00000000E+00
  0.00000000E+00  0.00000000E+00  0.00000000E+00
  0.00000000E+00  0.00000000E+00  0.00000000E+00
  0.00000000E+00  0.00000000E+00  0.00000000E+00
  0.00000000E+00  0.00000000E+00  0.00000000E+00
  0.00000000E+00  0.00000000E+00  0.00000000E+00
  0.00000000E+00  0.00000000E+00  0.00000000E+00
  0.00000000E+00  0.00000000E+00  0.00000000E+00
  0.00000000E+00  0.00000000E+00  0.00000000E+00
  0.00000000E+00  0.00000000E+00  0.00000000E+00
  0.00000000E+00  0.00000000E+00  0.00000000E+00
  0.00000000E+00  0.00000000E+00  0.00000000E+00
  0.00000000E+00  0.00000000E+00  0.00000000E+00
  0.00000000E+00  0.00000000E+00  0.00000000E+00
  0.00000000E+00  0.00000000E+00  0.00000000E+00
  0.00000000E+00  0.00000000E+00  0.00000000E+00
  0.00000000E+00  0.00000000E+00  0.00000000E+00
  0.00000000E+00  0.00000000E+00  0.00000000E+00
  0.00000000E+00  0.00000000E+00  0.00000000E+00
  0.00000000E+00  0.00000000E+00  0.00000000E+00
  0.00000000E+00  0.00000000E+00  0.00000000E+00
  0.00000000E+00  0.00000000E+00  0.00000000E+00
  0.00000000E+00  0.00000000E+00  0.00000000E+00
  0.00000000E+00  0.00000000E+00  0.00000000E+00
  0.00000000E+00  0.00000000E+00  0.00000000E+00
  0.00000000E+00  0.00000000E+00  0.00000000E+00
  0.00000000E+00  0.00000000E+00  0.00000000E+00
  0.00000000E+00  0.00000000E+00  0.00000000E+00
  0.00000000E+00  0.00000000E+00  0.00000000E+00
  0.00000000E+00  0.00000000E+00  0.00000000E+00
