Iron diiron(III) oxide                  
   1.00000000000000     
     8.3599148707597326    0.0015743088364132   -0.0263642467886820
     0.0015170766634442    8.4606414119771109   -0.0083713400268949
    -0.0264115981834996   -0.0083965347308499    8.4249168866139517
   Zn   Fe   Ni   Co   Mn   O 
     2     3     3     8     8    32
Direct
  0.8771675870241307  0.3782403285827086  0.3725911576589199
  0.1250666690478497  0.6193989151409870  0.6303079672627854
  0.2501737450978918  0.7501266331963306 -0.0026773686003049
 -0.0008534316166064 -0.0014258719821313  0.5023913509351731
  0.7532022862957416  0.7407718209194621  0.5051430500273222
  0.4985596132282045  0.0042082939572669  0.0001371963141179
  0.7505011198900750  0.4985674290170038  0.7460500026415019
  0.4990152382174375  0.4981097850690950  0.4995347431552183
  0.1211784563306741  0.1230698387968136  0.1288454573203936
  0.3784198301206872  0.8785669877864791  0.3773823261525820
  0.6186455482527539  0.1238757383718387  0.6266355461413810
  0.8766677856309374  0.8786486884596130  0.8725929272416083
 -0.0036712585857649  0.2545162352677333  0.7443395928208574
  0.2501228290576645  0.4958703567317856  0.2538593521609843
  0.3785880273198699  0.3801295732696258  0.8697072186058514
  0.4994416555626670  0.2513766793792053  0.2504365677229217
  0.6277969181112114  0.6210607528146848  0.1229151803934539
  0.4983464020490276  0.7472000077008932  0.7477193086270134
  0.0026517136422139  0.4975377396468083 -0.0037620607534305
  0.7502246485242169  0.2522391278271523  0.0012761801342738
  0.0041489218716350  0.7466971386677498  0.2560961534027965
  0.7490569204312792  0.0041335354117347  0.2538745392516684
  0.2483242968206336  0.2526016774371757  0.4985479929191459
  0.2503883202321189  0.0014843021229006  0.7490398844778458
  0.2574084035040201  0.2558767408083509  0.2656573056701380
  0.7295032028173613  0.7498181634071223  0.7432913215024428
  0.4827888520660102  0.9804035305915214  0.7561337880869244
  0.5128049202189033  0.0176670864629275  0.2435856011568431
  0.9948529450168293  0.7646236190819115  0.5084350240520507
  0.0145966407368879  0.2346391082154262  0.4934915940008303
  0.7711633206955173  0.4805441553676375  0.9909819609497834
  0.2341003331118607  0.5056046489932201  0.0111816192668393
  0.0131409662954543  0.5073791769092576  0.2328344246703948
  0.9963612011688022  0.4955918870577724  0.7707056585796906
  0.5181690371496489  0.2495447374717801  0.0104197948437067
  0.4890529324371255  0.7584393328511027  0.9792439644264627
  0.2487265288320961  0.0218771195626945  0.5108994262563243
  0.7516327542715213  0.9902771205391069  0.4848446283810360
  0.2673642960493043  0.7456645342842253  0.7570505567799600
  0.7394411040702308  0.2591262917267139  0.2333703529989750
  0.4765088132180877  0.4838214843770816  0.2538626861728636
  0.5088637451670511  0.5222874924775751  0.7425031206858748
  0.9847824797678071  0.2672124053573440  0.0017010862918207
  0.0083224353842371  0.7273938998642383 -0.0004118343164891
  0.0167794424431839  0.0073619081929250  0.7343605856127225
  0.9893058037082272  0.9858237965202412  0.2680032221686346
  0.5085562075594718  0.7414865186521878  0.5161250187628589
  0.4800058360514257  0.2564717318603859  0.4884523512846931
  0.7488904621064957  0.2517080913706041  0.7737644039431898
  0.2390429205593426  0.7404042213610270  0.2408791859801786
  0.2421504568913178  0.4814901783984987  0.4878109988965638
  0.7493475224614180  0.5073352827311896  0.5047501229567045
  0.7520962963231068  0.0214293591963934  0.0181709214937286
  0.2482842759802469  0.9885934286823699  0.9860288996852070
  0.7744133145260031  0.7501508319812433  0.2649002370367916
  0.2483787068544574  0.2529464020530098  0.7239877057081737
 
  0.00000000E+00  0.00000000E+00  0.00000000E+00
  0.00000000E+00  0.00000000E+00  0.00000000E+00
  0.00000000E+00  0.00000000E+00  0.00000000E+00
  0.00000000E+00  0.00000000E+00  0.00000000E+00
  0.00000000E+00  0.00000000E+00  0.00000000E+00
  0.00000000E+00  0.00000000E+00  0.00000000E+00
  0.00000000E+00  0.00000000E+00  0.00000000E+00
  0.00000000E+00  0.00000000E+00  0.00000000E+00
  0.00000000E+00  0.00000000E+00  0.00000000E+00
  0.00000000E+00  0.00000000E+00  0.00000000E+00
  0.00000000E+00  0.00000000E+00  0.00000000E+00
  0.00000000E+00  0.00000000E+00  0.00000000E+00
  0.00000000E+00  0.00000000E+00  0.00000000E+00
  0.00000000E+00  0.00000000E+00  0.00000000E+00
  0.00000000E+00  0.00000000E+00  0.00000000E+00
  0.00000000E+00  0.00000000E+00  0.00000000E+00
  0.00000000E+00  0.00000000E+00  0.00000000E+00
  0.00000000E+00  0.00000000E+00  0.00000000E+00
  0.00000000E+00  0.00000000E+00  0.00000000E+00
  0.00000000E+00  0.00000000E+00  0.00000000E+00
  0.00000000E+00  0.00000000E+00  0.00000000E+00
  0.00000000E+00  0.00000000E+00  0.00000000E+00
  0.00000000E+00  0.00000000E+00  0.00000000E+00
  0.00000000E+00  0.00000000E+00  0.00000000E+00
  0.00000000E+00  0.00000000E+00  0.00000000E+00
  0.00000000E+00  0.00000000E+00  0.00000000E+00
  0.00000000E+00  0.00000000E+00  0.00000000E+00
  0.00000000E+00  0.00000000E+00  0.00000000E+00
  0.00000000E+00  0.00000000E+00  0.00000000E+00
  0.00000000E+00  0.00000000E+00  0.00000000E+00
  0.00000000E+00  0.00000000E+00  0.00000000E+00
  0.00000000E+00  0.00000000E+00  0.00000000E+00
  0.00000000E+00  0.00000000E+00  0.00000000E+00
  0.00000000E+00  0.00000000E+00  0.00000000E+00
  0.00000000E+00  0.00000000E+00  0.00000000E+00
  0.00000000E+00  0.00000000E+00  0.00000000E+00
  0.00000000E+00  0.00000000E+00  0.00000000E+00
  0.00000000E+00  0.00000000E+00  0.00000000E+00
  0.00000000E+00  0.00000000E+00  0.00000000E+00
  0.00000000E+00  0.00000000E+00  0.00000000E+00
  0.00000000E+00  0.00000000E+00  0.00000000E+00
  0.00000000E+00  0.00000000E+00  0.00000000E+00
  0.00000000E+00  0.00000000E+00  0.00000000E+00
  0.00000000E+00  0.00000000E+00  0.00000000E+00
  0.00000000E+00  0.00000000E+00  0.00000000E+00
  0.00000000E+00  0.00000000E+00  0.00000000E+00
  0.00000000E+00  0.00000000E+00  0.00000000E+00
  0.00000000E+00  0.00000000E+00  0.00000000E+00
  0.00000000E+00  0.00000000E+00  0.00000000E+00
  0.00000000E+00  0.00000000E+00  0.00000000E+00
  0.00000000E+00  0.00000000E+00  0.00000000E+00
  0.00000000E+00  0.00000000E+00  0.00000000E+00
  0.00000000E+00  0.00000000E+00  0.00000000E+00
  0.00000000E+00  0.00000000E+00  0.00000000E+00
  0.00000000E+00  0.00000000E+00  0.00000000E+00
  0.00000000E+00  0.00000000E+00  0.00000000E+00
