Iron diiron(III) oxide                  
   1.00000000000000     
     8.4057845299595595   -0.0011719235490478   -0.0191105802457629
    -0.0012533109102035    8.3625620210843259    0.0006868596931229
    -0.0189600889980597    0.0006743970839653    8.3819081805322195
   Zn   Fe   Ni   Co   Mn   O 
     2     3     3     8     8    32
Direct
  0.1262939415541492  0.6292316397947900  0.6267361417817028
  0.3758205532888853  0.8706243351616590  0.3771745570824088
  0.8716521115380290  0.3724933260381758  0.3808858040920772
  0.1280998965129299  0.1233724442005887  0.1266401173715616
  0.0053612783841072  0.2518322622509347  0.7516999029057971
  0.2504493691569319  0.0005558426754948  0.7491746153980422
  0.4991680480458789  0.0003125968363412 -0.0007964212892518
 -0.0015998475555822  0.7477064071168795  0.2497225031978515
  0.6221297489731161  0.1244265007925398  0.6275265297461311
  0.2540062523362259  0.2488998635596984  0.5054715734376620
  0.7478128791140650  0.2465168869880812 -0.0048246275705117
  0.4970028959675118  0.7554647721338351  0.7483697358236161
  0.6238531819897144  0.6276765236865453  0.1186037885299063
  0.8766558635188179  0.8706838082320817  0.8749452659171637
  0.3793801447828855  0.3777715721636917  0.8778106779644596
 -0.0029417621156069  0.5011032071079070 -0.0009079026670606
  0.7498648566094709  0.5012222259333209  0.7472731152328291
  0.0014957166714406 -0.0052512818386736  0.5003814036104810
  0.2486545192079639  0.7506102930580744  0.0007658702540023
  0.7502656785541837  0.7498864661850716  0.4983607538925247
  0.2506258398332167  0.5078519257410150  0.2528851103153131
  0.5022900185760151  0.5015497423055427  0.4979874624377212
  0.5030880993274470  0.2503072631814782  0.2514227687314964
  0.7472882577123113 -0.0035468467859927  0.2505731330301593
  0.2699260968044932  0.2596430001552322  0.2495891628118027
  0.7488143974714691  0.7325473070448002  0.7315563642949764
  0.4904371959302561  0.9954501462272461  0.7589315597725923
  0.5166228803777847  0.0152502881663553  0.2549718095029518
  0.9862912050719946  0.7658370427793297  0.4953825457503806
  0.0019471466209788  0.2297430724388834  0.5020734746280026
  0.7536447512807645  0.4981309302233887  0.9733029666386864
  0.2464513733192644  0.5184025639908431  0.0199208135776552
 -0.0052488959872788  0.5016494348471131  0.2527567718684083
  0.9827529514639616  0.4903098830355819  0.7414135947348107
  0.5068869749141075  0.2441868013865611  0.0246696217957541
  0.4757183431070390  0.7578324690106468  0.9989636052171698
  0.2281573159114574 -0.0023800925530474  0.4990260962154420
  0.7644619984900954  0.9881710099337038  0.4870507166970213
  0.2486500788163625  0.7526533747544609  0.7726266613208118
  0.7362458631676380  0.2340530299672401  0.2537761824528200
  0.5062592702647106  0.4792149531255391  0.2611392673583969
  0.5195184596216353  0.5018982768530548  0.7336555465383754
 -0.0016625461662723  0.2490688759006490  0.9929352654992074
  0.0191818415536829  0.7447825311747518  0.0093164620678469
 -0.0000462917604490  0.0096374840956651  0.7268905203411343
  0.9839550648049080  0.0004200552442535  0.2634512651667916
  0.5180087420162249  0.7345530768342259  0.4942288071933401
  0.4989643672640344  0.2666330728456231  0.4825801160833316
  0.7621885383339185  0.2699506457832786  0.7488453499578427
  0.2441078332693393  0.7437993910569219  0.2363607755340638
  0.2650238967525120  0.5057927191902655  0.4840696033864021
  0.7405907050222780  0.5102938431282918  0.5098361177532440
  0.7448846431675590 -0.0005929290825700  0.0245133980306331
  0.2494920486932950  0.9845899292698512  0.0003382853607454
  0.7531357059581261  0.7686535133516439  0.2628956871443645
  0.2379205024600021  0.2485225233011399  0.7450497060789112
 
  0.00000000E+00  0.00000000E+00  0.00000000E+00
  0.00000000E+00  0.00000000E+00  0.00000000E+00
  0.00000000E+00  0.00000000E+00  0.00000000E+00
  0.00000000E+00  0.00000000E+00  0.00000000E+00
  0.00000000E+00  0.00000000E+00  0.00000000E+00
  0.00000000E+00  0.00000000E+00  0.00000000E+00
  0.00000000E+00  0.00000000E+00  0.00000000E+00
  0.00000000E+00  0.00000000E+00  0.00000000E+00
  0.00000000E+00  0.00000000E+00  0.00000000E+00
  0.00000000E+00  0.00000000E+00  0.00000000E+00
  0.00000000E+00  0.00000000E+00  0.00000000E+00
  0.00000000E+00  0.00000000E+00  0.00000000E+00
  0.00000000E+00  0.00000000E+00  0.00000000E+00
  0.00000000E+00  0.00000000E+00  0.00000000E+00
  0.00000000E+00  0.00000000E+00  0.00000000E+00
  0.00000000E+00  0.00000000E+00  0.00000000E+00
  0.00000000E+00  0.00000000E+00  0.00000000E+00
  0.00000000E+00  0.00000000E+00  0.00000000E+00
  0.00000000E+00  0.00000000E+00  0.00000000E+00
  0.00000000E+00  0.00000000E+00  0.00000000E+00
  0.00000000E+00  0.00000000E+00  0.00000000E+00
  0.00000000E+00  0.00000000E+00  0.00000000E+00
  0.00000000E+00  0.00000000E+00  0.00000000E+00
  0.00000000E+00  0.00000000E+00  0.00000000E+00
  0.00000000E+00  0.00000000E+00  0.00000000E+00
  0.00000000E+00  0.00000000E+00  0.00000000E+00
  0.00000000E+00  0.00000000E+00  0.00000000E+00
  0.00000000E+00  0.00000000E+00  0.00000000E+00
  0.00000000E+00  0.00000000E+00  0.00000000E+00
  0.00000000E+00  0.00000000E+00  0.00000000E+00
  0.00000000E+00  0.00000000E+00  0.00000000E+00
  0.00000000E+00  0.00000000E+00  0.00000000E+00
  0.00000000E+00  0.00000000E+00  0.00000000E+00
  0.00000000E+00  0.00000000E+00  0.00000000E+00
  0.00000000E+00  0.00000000E+00  0.00000000E+00
  0.00000000E+00  0.00000000E+00  0.00000000E+00
  0.00000000E+00  0.00000000E+00  0.00000000E+00
  0.00000000E+00  0.00000000E+00  0.00000000E+00
  0.00000000E+00  0.00000000E+00  0.00000000E+00
  0.00000000E+00  0.00000000E+00  0.00000000E+00
  0.00000000E+00  0.00000000E+00  0.00000000E+00
  0.00000000E+00  0.00000000E+00  0.00000000E+00
  0.00000000E+00  0.00000000E+00  0.00000000E+00
  0.00000000E+00  0.00000000E+00  0.00000000E+00
  0.00000000E+00  0.00000000E+00  0.00000000E+00
  0.00000000E+00  0.00000000E+00  0.00000000E+00
  0.00000000E+00  0.00000000E+00  0.00000000E+00
  0.00000000E+00  0.00000000E+00  0.00000000E+00
  0.00000000E+00  0.00000000E+00  0.00000000E+00
  0.00000000E+00  0.00000000E+00  0.00000000E+00
  0.00000000E+00  0.00000000E+00  0.00000000E+00
  0.00000000E+00  0.00000000E+00  0.00000000E+00
  0.00000000E+00  0.00000000E+00  0.00000000E+00
  0.00000000E+00  0.00000000E+00  0.00000000E+00
  0.00000000E+00  0.00000000E+00  0.00000000E+00
  0.00000000E+00  0.00000000E+00  0.00000000E+00
