Iron diiron(III) oxide                  
   1.00000000000000     
     8.5029778231570443    0.0129259343539216   -0.0059405647549378
     0.0128545420695774    8.4074463836006768   -0.0029216066954379
    -0.0060268156954362   -0.0029928616425788    8.3316772838602731
   Zn   Fe   Ni   Co   Mn   O 
     2     3     3     8     8    32
Direct
  0.3820486553625527  0.3715842936178363  0.8708999273545615
  0.1150083349398875  0.1304038554224469  0.1283600093223617
  0.2520654438680220  0.2484164954770464  0.4989742654995994
  0.7478187990556595  0.2501436723206790 -0.0013103163129326
  0.5021902899292690  0.0057934005652828  0.0041909288675297
  0.4989470265836580  0.7481766446783121  0.7489548148349090
  0.4991935457220208  0.2489368529680386  0.2478297997388956
  0.7454229206272855  0.4967494184966669  0.7517671443051139
  0.1219622471954997  0.6269728434417484  0.6272461638107096
  0.7498883331114230  0.0003564113476246  0.2515275264980657
 -0.0012263288232099  0.2556268627050964  0.7521487757523690
  0.0010147339175811  0.4983154534577806 -0.0049131289304802
  0.6238901668609720  0.1283926121110139  0.6287430450077526
  0.0027454179634517  0.7521407038241685  0.2511561158265151
  0.7488170706763507  0.7505639786153264  0.5012466334299771
  0.3796078903294939  0.8710971863746169  0.3741720266022059
  0.0008926346193998 -0.0014876259235322  0.4988930454687066
  0.2525025566630489  0.4994963045067780  0.2467324208583106
  0.4978752067448413  0.4996358327948144  0.5042778928983134
  0.8744275407280591  0.3757807940884693  0.3713746862337680
  0.2514874159709837  0.0004855789408275  0.7513456782142448
  0.6246349523773665  0.6259896129807472  0.1257100041737783
  0.8762245821085866  0.8686682321711855  0.8714050994488903
  0.2517391193735308  0.7502048834161670  0.0001849442188564
  0.2540368323774561  0.2680079933539557  0.2534364385114573
  0.7381305839008254  0.7299797578989157  0.7433928648893202
  0.4774194704550768  0.9937790400326820  0.7565629677844045
  0.5038422086427714  0.0087487149441656  0.2399545903578394
  0.9969431316564434  0.7705895149168100  0.4939898378950018
  0.0168641944384839  0.2286803164357979  0.5030371312529361
  0.7535598244694190  0.4821995001429898  0.9912105179131907
  0.2570230496845559  0.5163179989357080  0.0121987661953748
  0.0275143303385383  0.5099572306269538  0.2450587552420395
  0.9903706704433670  0.4927005441344670  0.7533724284907837
  0.5160412613276744  0.2437232831147061  0.0008975412542011
  0.4788859364218115  0.7650356606966168  0.9934340019257997
  0.2383862085352544  0.0043698888232406  0.5157637475607584
  0.7759093561195547  0.0003685566251729  0.5033871564379540
  0.2535188152333716  0.7681477671601606  0.7670846373683821
  0.7403193529715192  0.2428118481367603  0.2261800436334867
  0.4815479278867852  0.4938629807813886  0.2686840164254835
  0.4970451499887383  0.5051813940815708  0.7323635561253171
  0.9748525009130350  0.2531578649738832  0.0006110001768167
  0.0261361996774166  0.7458680953639727  0.0090307755187748
  0.0221326407780468  0.0042224338574910  0.7340252727013160
  0.0015964736646424  0.9945027325619451  0.2694173720151104
  0.5029332641031949  0.7272853290111119  0.5062616963106055
  0.4869511087476660  0.2666708072515852  0.4948006559799705
  0.7505846250142758  0.2623569138985861  0.7700901514453614
  0.2511718708041119  0.7320929619344246  0.2326135257668097
  0.2624279515928138  0.4924558174447903  0.4842337434347599
  0.7228501068370292  0.4988532655520513  0.5108620622747582
  0.7363287619860359  0.0167135601078076 -0.0041276058370579
  0.2533692143624703  0.9885705087241577  0.9878588327744061
  0.7619408455161686  0.7594486617934986  0.2599746858342080
  0.2501875752057119  0.2308947582834887  0.7434213292184098
 
  0.00000000E+00  0.00000000E+00  0.00000000E+00
  0.00000000E+00  0.00000000E+00  0.00000000E+00
  0.00000000E+00  0.00000000E+00  0.00000000E+00
  0.00000000E+00  0.00000000E+00  0.00000000E+00
  0.00000000E+00  0.00000000E+00  0.00000000E+00
  0.00000000E+00  0.00000000E+00  0.00000000E+00
  0.00000000E+00  0.00000000E+00  0.00000000E+00
  0.00000000E+00  0.00000000E+00  0.00000000E+00
  0.00000000E+00  0.00000000E+00  0.00000000E+00
  0.00000000E+00  0.00000000E+00  0.00000000E+00
  0.00000000E+00  0.00000000E+00  0.00000000E+00
  0.00000000E+00  0.00000000E+00  0.00000000E+00
  0.00000000E+00  0.00000000E+00  0.00000000E+00
  0.00000000E+00  0.00000000E+00  0.00000000E+00
  0.00000000E+00  0.00000000E+00  0.00000000E+00
  0.00000000E+00  0.00000000E+00  0.00000000E+00
  0.00000000E+00  0.00000000E+00  0.00000000E+00
  0.00000000E+00  0.00000000E+00  0.00000000E+00
  0.00000000E+00  0.00000000E+00  0.00000000E+00
  0.00000000E+00  0.00000000E+00  0.00000000E+00
  0.00000000E+00  0.00000000E+00  0.00000000E+00
  0.00000000E+00  0.00000000E+00  0.00000000E+00
  0.00000000E+00  0.00000000E+00  0.00000000E+00
  0.00000000E+00  0.00000000E+00  0.00000000E+00
  0.00000000E+00  0.00000000E+00  0.00000000E+00
  0.00000000E+00  0.00000000E+00  0.00000000E+00
  0.00000000E+00  0.00000000E+00  0.00000000E+00
  0.00000000E+00  0.00000000E+00  0.00000000E+00
  0.00000000E+00  0.00000000E+00  0.00000000E+00
  0.00000000E+00  0.00000000E+00  0.00000000E+00
  0.00000000E+00  0.00000000E+00  0.00000000E+00
  0.00000000E+00  0.00000000E+00  0.00000000E+00
  0.00000000E+00  0.00000000E+00  0.00000000E+00
  0.00000000E+00  0.00000000E+00  0.00000000E+00
  0.00000000E+00  0.00000000E+00  0.00000000E+00
  0.00000000E+00  0.00000000E+00  0.00000000E+00
  0.00000000E+00  0.00000000E+00  0.00000000E+00
  0.00000000E+00  0.00000000E+00  0.00000000E+00
  0.00000000E+00  0.00000000E+00  0.00000000E+00
  0.00000000E+00  0.00000000E+00  0.00000000E+00
  0.00000000E+00  0.00000000E+00  0.00000000E+00
  0.00000000E+00  0.00000000E+00  0.00000000E+00
  0.00000000E+00  0.00000000E+00  0.00000000E+00
  0.00000000E+00  0.00000000E+00  0.00000000E+00
  0.00000000E+00  0.00000000E+00  0.00000000E+00
  0.00000000E+00  0.00000000E+00  0.00000000E+00
  0.00000000E+00  0.00000000E+00  0.00000000E+00
  0.00000000E+00  0.00000000E+00  0.00000000E+00
  0.00000000E+00  0.00000000E+00  0.00000000E+00
  0.00000000E+00  0.00000000E+00  0.00000000E+00
  0.00000000E+00  0.00000000E+00  0.00000000E+00
  0.00000000E+00  0.00000000E+00  0.00000000E+00
  0.00000000E+00  0.00000000E+00  0.00000000E+00
  0.00000000E+00  0.00000000E+00  0.00000000E+00
  0.00000000E+00  0.00000000E+00  0.00000000E+00
  0.00000000E+00  0.00000000E+00  0.00000000E+00
