Iron diiron(III) oxide                  
   1.00000000000000     
     8.4076988436913709    0.0214775573621737    0.0128729245767978
     0.0212829891476640    8.4354642281156629   -0.0082249962653395
     0.0128346483914888   -0.0082427780655962    8.4171126347901062
   Zn   Fe   Ni   Co   Mn   O 
     2     3     3     8     8    32
Direct
  0.8715566299084720  0.8775255769116947  0.8806144169455289
  0.3703523521133769  0.3725313893181937  0.8753479889474323
  0.1267854385520262  0.6215341255400002  0.6266245281812045
  0.5017118536610795  0.2518682436755455  0.2478318817841678
  0.0025683354262705  0.2381289086549673  0.7524951176075677
  0.0021843026853125 -0.0010268865179543  0.4983917908718265
  0.2462838799662821  0.7510213517236993  0.0018071570671746
  0.7504621615364806  0.2481846417106412  0.0023474707344613
  0.3729713259921369  0.8804848532707236  0.3718420690126834
  0.2430349554989537 -0.0025546619871585  0.7506584975043202
  0.7553736452173271  0.0009555367793535  0.2469240261384548
  0.1288044043421941  0.1246592563777881  0.1265997876102067
  0.4972963277264612  0.5006322723706952  0.4975441014572798
  0.0056304646060715  0.7568476032581888  0.2480789316766271
  0.2479178646685223  0.5032578264175352  0.2459837676276235
  0.8767036064917667  0.3755455658702941  0.3713507930820962
  0.6267522133018918  0.1234770213200160  0.6253238983920080
  0.0028380296830759  0.5026537762956143 -0.0000415373575090
  0.7512298069774864  0.5016015320155847  0.7515818419371270
  0.5016362778510722  0.7486187045921016  0.7508295222741269
  0.4983791648992251  0.0008072575086682 -0.0012487661734384
  0.7537766550070797  0.7499335251160599  0.5022591526039414
  0.6272531031800456  0.6264547151000087  0.1270660249370388
  0.2474955516426329  0.2487854303440283  0.4997395789112848
  0.2554720898334856  0.2564469240710049  0.2723473427731561
  0.7370402532611924  0.7374501034508248  0.7410933759903457
  0.4976085428161109  0.9760171140678995  0.7660666149280192
  0.5034112117439443  0.0090002937325052  0.2264541007201209
  0.9878387646869315  0.7471348632115226  0.4980380048331949
  0.0158865452242797  0.2463840857296125  0.5111862168976814
  0.7691547735513407  0.4953309487486912  0.9799225066798825
  0.2299924567375061  0.5065963113773614 -0.0034493856248229
 -0.0024823510226792  0.5151442393098137  0.2250143958202416
  0.9856232773312080  0.5002907331865900  0.7624110809766299
  0.5010751617837783  0.2331658449028453  0.0028462953421735
  0.4944160223438387  0.7667273409041589  0.9809326626125523
  0.2452456252481559  0.0220202600944637  0.5081540383410408
  0.7600683655099887  0.9733757210264040  0.4945105946536240
  0.2720974840436349  0.7444457552640001  0.7468130579766662
  0.7367632231388929  0.2446604574716556  0.2453552967567156
  0.4908539782585742  0.4862485410344339  0.2575252341064696
  0.5196142748492913  0.5147516443181036  0.7535130323329920
 -0.0014563345605621  0.2722778767777408  0.9898399099894063
 -0.0002708113514606  0.7343564755940778  0.0056602605900969
 -0.0032045038649743  0.0089472830184771  0.7490775961149084
  0.9980401041324011  0.9819127669078408  0.2547749489293127
  0.5203763754766033  0.7493528742121378  0.5172715376805495
  0.4769292396383005  0.2544477435833025  0.4903659365111229
  0.7627387018495018  0.2770721945500505  0.7532711685136537
  0.2362002561830860  0.7447031175169102  0.2447593064622191
  0.2493131511390486  0.4843143360217879  0.5015447967738114
  0.7483864731841452  0.5155133730860115  0.5210932373788401
  0.7294624195413105  0.0046483474468947  0.0012704890117242
  0.2698382271842633  0.9935145262222801  0.9913044209053944
  0.7645575205958709  0.7492302288107793  0.2790093755673327
  0.2404111305777449  0.2525901086835302  0.7320705076817078
 
  0.00000000E+00  0.00000000E+00  0.00000000E+00
  0.00000000E+00  0.00000000E+00  0.00000000E+00
  0.00000000E+00  0.00000000E+00  0.00000000E+00
  0.00000000E+00  0.00000000E+00  0.00000000E+00
  0.00000000E+00  0.00000000E+00  0.00000000E+00
  0.00000000E+00  0.00000000E+00  0.00000000E+00
  0.00000000E+00  0.00000000E+00  0.00000000E+00
  0.00000000E+00  0.00000000E+00  0.00000000E+00
  0.00000000E+00  0.00000000E+00  0.00000000E+00
  0.00000000E+00  0.00000000E+00  0.00000000E+00
  0.00000000E+00  0.00000000E+00  0.00000000E+00
  0.00000000E+00  0.00000000E+00  0.00000000E+00
  0.00000000E+00  0.00000000E+00  0.00000000E+00
  0.00000000E+00  0.00000000E+00  0.00000000E+00
  0.00000000E+00  0.00000000E+00  0.00000000E+00
  0.00000000E+00  0.00000000E+00  0.00000000E+00
  0.00000000E+00  0.00000000E+00  0.00000000E+00
  0.00000000E+00  0.00000000E+00  0.00000000E+00
  0.00000000E+00  0.00000000E+00  0.00000000E+00
  0.00000000E+00  0.00000000E+00  0.00000000E+00
  0.00000000E+00  0.00000000E+00  0.00000000E+00
  0.00000000E+00  0.00000000E+00  0.00000000E+00
  0.00000000E+00  0.00000000E+00  0.00000000E+00
  0.00000000E+00  0.00000000E+00  0.00000000E+00
  0.00000000E+00  0.00000000E+00  0.00000000E+00
  0.00000000E+00  0.00000000E+00  0.00000000E+00
  0.00000000E+00  0.00000000E+00  0.00000000E+00
  0.00000000E+00  0.00000000E+00  0.00000000E+00
  0.00000000E+00  0.00000000E+00  0.00000000E+00
  0.00000000E+00  0.00000000E+00  0.00000000E+00
  0.00000000E+00  0.00000000E+00  0.00000000E+00
  0.00000000E+00  0.00000000E+00  0.00000000E+00
  0.00000000E+00  0.00000000E+00  0.00000000E+00
  0.00000000E+00  0.00000000E+00  0.00000000E+00
  0.00000000E+00  0.00000000E+00  0.00000000E+00
  0.00000000E+00  0.00000000E+00  0.00000000E+00
  0.00000000E+00  0.00000000E+00  0.00000000E+00
  0.00000000E+00  0.00000000E+00  0.00000000E+00
  0.00000000E+00  0.00000000E+00  0.00000000E+00
  0.00000000E+00  0.00000000E+00  0.00000000E+00
  0.00000000E+00  0.00000000E+00  0.00000000E+00
  0.00000000E+00  0.00000000E+00  0.00000000E+00
  0.00000000E+00  0.00000000E+00  0.00000000E+00
  0.00000000E+00  0.00000000E+00  0.00000000E+00
  0.00000000E+00  0.00000000E+00  0.00000000E+00
  0.00000000E+00  0.00000000E+00  0.00000000E+00
  0.00000000E+00  0.00000000E+00  0.00000000E+00
  0.00000000E+00  0.00000000E+00  0.00000000E+00
  0.00000000E+00  0.00000000E+00  0.00000000E+00
  0.00000000E+00  0.00000000E+00  0.00000000E+00
  0.00000000E+00  0.00000000E+00  0.00000000E+00
  0.00000000E+00  0.00000000E+00  0.00000000E+00
  0.00000000E+00  0.00000000E+00  0.00000000E+00
  0.00000000E+00  0.00000000E+00  0.00000000E+00
  0.00000000E+00  0.00000000E+00  0.00000000E+00
  0.00000000E+00  0.00000000E+00  0.00000000E+00
