Iron diiron(III) oxide                  
   1.00000000000000     
     8.4264880918976814   -0.0006641739892683   -0.0112835987298051
    -0.0006722801155590    8.4481852409951870    0.0091885586205128
    -0.0112728709827349    0.0091317504665238    8.3819491325695008
   Zn   Fe   Ni   Co   Mn   O 
     2     3     3     8     8    32
Direct
  0.3693503280381803  0.3860083852395632  0.8765670286067990
  0.1309912598719543  0.6202451475393319  0.6268581727450684
  0.3716213660402861  0.8828223051940148  0.3734883444107630
  0.7556607078595851  0.7485938778401882  0.4919494282615750
  0.7543089416779184  0.5081373230834564  0.7544859824119493
  0.0044312174875806  0.5040117919374962  0.0028028038902489
  0.4967646612832232 -0.0037323282140032  0.0008089567974353
  0.2499242792632268  0.5025946214462351  0.2473845384775007
  0.6230987537665340  0.6191156974291012  0.1224320765220338
  0.2479093828528636 -0.0020940808801245  0.7589655003934704
  0.7523210764125944 -0.0065768427327552  0.2429481932753384
  0.1264256538595173  0.1209484783273817  0.1265946578511087
  0.0005936644733524  0.7453723333300663  0.2497298928671418
  0.2467614987581350  0.7481128458555361  0.0004500488907682
  0.8724268912960117  0.3803627434043020  0.3693785771723048
  0.8746627743468965  0.8775721694430679  0.8781981359028286
 -0.0011237502119708 -0.0011528158808724  0.5009916772351445
  0.2493583226306994  0.2540738381854685  0.4990113335069402
  0.4998784836406850  0.2497863214688123  0.2461670106326907
  0.6294022276646514  0.1165646770756527  0.6287212021371402
  0.4991900856376172  0.4996330990214183  0.4991030967579307
  0.4951632951923243  0.7507969525571155  0.7524636912565931
 -0.0002631955758165  0.2520209817190779  0.7505579886890252
  0.7486498557237886  0.2503081063844870 -0.0001264733082388
  0.2697364694014791  0.2555406105640701  0.2612408699279535
  0.7295024291258934  0.7415544804947327  0.7438443879346864
  0.4901525647013810  0.9750348557996128  0.7586199835732945
  0.5027105765082107  0.0179803203407600  0.2459051884338728
  0.9960833397696783  0.7672045007646348  0.5077350506161243
 -0.0075285664934489  0.2326125558196206  0.5168499350900012
  0.7565329159137426  0.4800229467659252  0.9890536844416152
  0.2464909686868342  0.5169726488180103  0.0053993261293849
  0.0119500790698922  0.5068953632112763  0.2452465385968028
  0.9905647937244685  0.4823231784508648  0.7474031250356556
  0.5125621065625494  0.2500933952577513  0.0088346916439457
  0.4911388204502204  0.7503458449169680  0.9799595690341154
  0.2333437388979817  0.0174515671404224  0.5028550842957419
  0.7748536768336912  0.9840326005306276  0.4952324938211254
  0.2676991447911752  0.7472681011216339  0.7562737288607913
  0.7323629002296772  0.2472722956676817  0.2291157362145804
  0.4964988772452471  0.4787445171979133  0.2644015805115077
  0.5082176371766964  0.5128846555744783  0.7364788559573233
  0.9836243989830982  0.2529165248989237  0.9838039614621712
  0.0130359239364885  0.7452706287324187  0.0041693587607861
  0.0004983504788112  0.0213501720089039  0.7355852122063746
  0.9965726828360777  0.9951100216636455  0.2739557144427258
  0.5060201767554893  0.7592325833505418  0.5151911703782129
  0.5016038277566326  0.2469237706418274  0.4747355653094970
  0.7663872587391094  0.2621926429215152  0.7668376612058169
  0.2556027286142054  0.7467013830428483  0.2446882062930200
  0.2664194346568642  0.4835934545429617  0.4978876452660505
  0.7334107911301539  0.5104123348135972  0.5119089670341268
  0.7403423450248561  0.0244922661368690 -0.0007273006024771
  0.2551366179866176  0.9808955567894834  0.9975120929515999
  0.7506348478080259  0.7512785919334800  0.2613995143799088
  0.2303303607083606  0.2518700013119803  0.7386705354101023
 
  0.00000000E+00  0.00000000E+00  0.00000000E+00
  0.00000000E+00  0.00000000E+00  0.00000000E+00
  0.00000000E+00  0.00000000E+00  0.00000000E+00
  0.00000000E+00  0.00000000E+00  0.00000000E+00
  0.00000000E+00  0.00000000E+00  0.00000000E+00
  0.00000000E+00  0.00000000E+00  0.00000000E+00
  0.00000000E+00  0.00000000E+00  0.00000000E+00
  0.00000000E+00  0.00000000E+00  0.00000000E+00
  0.00000000E+00  0.00000000E+00  0.00000000E+00
  0.00000000E+00  0.00000000E+00  0.00000000E+00
  0.00000000E+00  0.00000000E+00  0.00000000E+00
  0.00000000E+00  0.00000000E+00  0.00000000E+00
  0.00000000E+00  0.00000000E+00  0.00000000E+00
  0.00000000E+00  0.00000000E+00  0.00000000E+00
  0.00000000E+00  0.00000000E+00  0.00000000E+00
  0.00000000E+00  0.00000000E+00  0.00000000E+00
  0.00000000E+00  0.00000000E+00  0.00000000E+00
  0.00000000E+00  0.00000000E+00  0.00000000E+00
  0.00000000E+00  0.00000000E+00  0.00000000E+00
  0.00000000E+00  0.00000000E+00  0.00000000E+00
  0.00000000E+00  0.00000000E+00  0.00000000E+00
  0.00000000E+00  0.00000000E+00  0.00000000E+00
  0.00000000E+00  0.00000000E+00  0.00000000E+00
  0.00000000E+00  0.00000000E+00  0.00000000E+00
  0.00000000E+00  0.00000000E+00  0.00000000E+00
  0.00000000E+00  0.00000000E+00  0.00000000E+00
  0.00000000E+00  0.00000000E+00  0.00000000E+00
  0.00000000E+00  0.00000000E+00  0.00000000E+00
  0.00000000E+00  0.00000000E+00  0.00000000E+00
  0.00000000E+00  0.00000000E+00  0.00000000E+00
  0.00000000E+00  0.00000000E+00  0.00000000E+00
  0.00000000E+00  0.00000000E+00  0.00000000E+00
  0.00000000E+00  0.00000000E+00  0.00000000E+00
  0.00000000E+00  0.00000000E+00  0.00000000E+00
  0.00000000E+00  0.00000000E+00  0.00000000E+00
  0.00000000E+00  0.00000000E+00  0.00000000E+00
  0.00000000E+00  0.00000000E+00  0.00000000E+00
  0.00000000E+00  0.00000000E+00  0.00000000E+00
  0.00000000E+00  0.00000000E+00  0.00000000E+00
  0.00000000E+00  0.00000000E+00  0.00000000E+00
  0.00000000E+00  0.00000000E+00  0.00000000E+00
  0.00000000E+00  0.00000000E+00  0.00000000E+00
  0.00000000E+00  0.00000000E+00  0.00000000E+00
  0.00000000E+00  0.00000000E+00  0.00000000E+00
  0.00000000E+00  0.00000000E+00  0.00000000E+00
  0.00000000E+00  0.00000000E+00  0.00000000E+00
  0.00000000E+00  0.00000000E+00  0.00000000E+00
  0.00000000E+00  0.00000000E+00  0.00000000E+00
  0.00000000E+00  0.00000000E+00  0.00000000E+00
  0.00000000E+00  0.00000000E+00  0.00000000E+00
  0.00000000E+00  0.00000000E+00  0.00000000E+00
  0.00000000E+00  0.00000000E+00  0.00000000E+00
  0.00000000E+00  0.00000000E+00  0.00000000E+00
  0.00000000E+00  0.00000000E+00  0.00000000E+00
  0.00000000E+00  0.00000000E+00  0.00000000E+00
  0.00000000E+00  0.00000000E+00  0.00000000E+00
