Iron diiron(III) oxide                  
   1.00000000000000     
     8.4083738421775820    0.0308085815555819   -0.0254415533470304
     0.0308458331408941    8.3713821645413091   -0.0266003008097567
    -0.0254793128810956   -0.0265884656124421    8.4139481052089700
   Zn   Fe   Ni   Co   Mn   O 
     2     3     3     8     8    32
Direct
  0.1310830429890075  0.1317569995001169  0.1281609786455881
  0.8687044685240272  0.8728373475822837  0.8739202764110776
  0.4972385693956094  0.5024403439921856  0.4953438990352149
  0.2487901706050804  0.4988355355277116  0.2491878596115663
  0.5022266460611905  0.0021853193514139  0.0092606095821508
  0.7518132728565757  0.0009949027050014  0.2476364678533770
  0.4996531823092024  0.2527549496891400  0.2485168361996641
  0.0005257643710723  0.2464944881566028  0.7524287571905647
  0.7479008079813489  0.7493177222672772  0.4962862518917276
  0.3702988589502357  0.8715662636718762  0.3740256936941149
  0.6271534721660789  0.6251367792841028  0.1293404965986751
  0.8686041565196142  0.3703611144272201  0.3742639761911737
  0.7480190624436831  0.4996965694508815  0.7489214986916523
  0.2519464603478812  0.7506206821155365  0.0029981878417945
  0.2500446463658639  0.2510123804726768  0.4949895864688401
  0.3717350350430962  0.3728249052525716  0.8745014152518533
  0.6285801693601411  0.1290121137711006  0.6247946152020739
  0.2478059080459368  0.0010000207719603  0.7514341377748376
  0.5011074650556152  0.7494406997521952  0.7492380780470869
  0.0003116185376898  0.7505011546890800  0.2474069911420117
 -0.0008403612457554  0.4960793462722404  0.0046086308934685
  0.1262007394331471  0.6230811854964704  0.6275197989280094
  0.7531840316287701  0.2493439334892894  0.0027009380803002
  0.0016586794604249  0.0003667459337367  0.4978251857702952
  0.2573374297833363  0.2697969477961147  0.2513140672855203
  0.7286700777466062  0.7491396437964867  0.7444031787393884
  0.4806283971493059  0.9840946881322303  0.7560862052675176
  0.5043442857434651  0.0018912614248067  0.2398558299486563
  0.0006668793983645  0.7651661962275090  0.4769107817447840
  0.0026171741125239  0.2286678794336235  0.5070896265409471
  0.7667653516362994  0.4819782087539760  0.0021725277373929
  0.2290157453566135  0.5002810081339157  0.0150875037730372
  0.0099000427432469  0.5146213311991193  0.2394636642359947
 -0.0035868582068882  0.4925418320596018  0.7779747523815782
  0.5227455116253575  0.2429165359829653  0.0007591660438421
  0.5014941018774252  0.7593175619955896  0.9798770337745092
  0.2350612458204231 -0.0009543236879865  0.5200158141589177
  0.7763685651073716  0.9952823051925411  0.4898180674189377
  0.2691283260324782  0.7685689256839174  0.7566265651580892
  0.7424118834587615  0.2419636781652186  0.2294469785354666
  0.4827140547062068  0.5033591843634136  0.2661570418497802
  0.4945031322506440  0.5181269669466915  0.7329639486214794
  0.9863265179082379  0.2638460316621611  0.0031807701907368
 -0.0031359760610468  0.7319169761211110  0.0142317724350281
  0.0143302106192849 -0.0073429864405867  0.7341736495862790
  0.0070933159571420  0.9850102371784086  0.2634446103046398
  0.4973828377104822  0.7355058080795890  0.5176423701436743
  0.4964431034123230  0.2778596510935895  0.4909975960920289
  0.7622057602853913  0.2568300056180917  0.7762618795892721
  0.2308675484177794  0.7325813929909580  0.2455454576532488
  0.2680350096977880  0.5001295687440748  0.4789817700022034
  0.7268390962521399  0.5035196172341183  0.5048376145350419
  0.7448144576797798  0.0176057149441904  0.0006967068095960
  0.2575361243208830  0.0023861524153462  0.9826661019285616
  0.7736855105413663  0.7575928513699097  0.2514484168712754
  0.2430452697113699  0.2281376437666361  0.7445573636454554
 
  0.00000000E+00  0.00000000E+00  0.00000000E+00
  0.00000000E+00  0.00000000E+00  0.00000000E+00
  0.00000000E+00  0.00000000E+00  0.00000000E+00
  0.00000000E+00  0.00000000E+00  0.00000000E+00
  0.00000000E+00  0.00000000E+00  0.00000000E+00
  0.00000000E+00  0.00000000E+00  0.00000000E+00
  0.00000000E+00  0.00000000E+00  0.00000000E+00
  0.00000000E+00  0.00000000E+00  0.00000000E+00
  0.00000000E+00  0.00000000E+00  0.00000000E+00
  0.00000000E+00  0.00000000E+00  0.00000000E+00
  0.00000000E+00  0.00000000E+00  0.00000000E+00
  0.00000000E+00  0.00000000E+00  0.00000000E+00
  0.00000000E+00  0.00000000E+00  0.00000000E+00
  0.00000000E+00  0.00000000E+00  0.00000000E+00
  0.00000000E+00  0.00000000E+00  0.00000000E+00
  0.00000000E+00  0.00000000E+00  0.00000000E+00
  0.00000000E+00  0.00000000E+00  0.00000000E+00
  0.00000000E+00  0.00000000E+00  0.00000000E+00
  0.00000000E+00  0.00000000E+00  0.00000000E+00
  0.00000000E+00  0.00000000E+00  0.00000000E+00
  0.00000000E+00  0.00000000E+00  0.00000000E+00
  0.00000000E+00  0.00000000E+00  0.00000000E+00
  0.00000000E+00  0.00000000E+00  0.00000000E+00
  0.00000000E+00  0.00000000E+00  0.00000000E+00
  0.00000000E+00  0.00000000E+00  0.00000000E+00
  0.00000000E+00  0.00000000E+00  0.00000000E+00
  0.00000000E+00  0.00000000E+00  0.00000000E+00
  0.00000000E+00  0.00000000E+00  0.00000000E+00
  0.00000000E+00  0.00000000E+00  0.00000000E+00
  0.00000000E+00  0.00000000E+00  0.00000000E+00
  0.00000000E+00  0.00000000E+00  0.00000000E+00
  0.00000000E+00  0.00000000E+00  0.00000000E+00
  0.00000000E+00  0.00000000E+00  0.00000000E+00
  0.00000000E+00  0.00000000E+00  0.00000000E+00
  0.00000000E+00  0.00000000E+00  0.00000000E+00
  0.00000000E+00  0.00000000E+00  0.00000000E+00
  0.00000000E+00  0.00000000E+00  0.00000000E+00
  0.00000000E+00  0.00000000E+00  0.00000000E+00
  0.00000000E+00  0.00000000E+00  0.00000000E+00
  0.00000000E+00  0.00000000E+00  0.00000000E+00
  0.00000000E+00  0.00000000E+00  0.00000000E+00
  0.00000000E+00  0.00000000E+00  0.00000000E+00
  0.00000000E+00  0.00000000E+00  0.00000000E+00
  0.00000000E+00  0.00000000E+00  0.00000000E+00
  0.00000000E+00  0.00000000E+00  0.00000000E+00
  0.00000000E+00  0.00000000E+00  0.00000000E+00
  0.00000000E+00  0.00000000E+00  0.00000000E+00
  0.00000000E+00  0.00000000E+00  0.00000000E+00
  0.00000000E+00  0.00000000E+00  0.00000000E+00
  0.00000000E+00  0.00000000E+00  0.00000000E+00
  0.00000000E+00  0.00000000E+00  0.00000000E+00
  0.00000000E+00  0.00000000E+00  0.00000000E+00
  0.00000000E+00  0.00000000E+00  0.00000000E+00
  0.00000000E+00  0.00000000E+00  0.00000000E+00
  0.00000000E+00  0.00000000E+00  0.00000000E+00
  0.00000000E+00  0.00000000E+00  0.00000000E+00
