Iron diiron(III) oxide                  
   1.00000000000000     
     8.4347240480944912    0.0057544868381384   -0.0184824577784347
     0.0056468275264384    8.3429089861306167   -0.0056954833837252
    -0.0181846778808903   -0.0056699210711432    8.5177274893045674
   Zn   Fe   Ni   Co   Mn   O 
     2     3     3     8     8    32
Direct
  0.8792027669488574  0.8815856551703505  0.8648841662524366
  0.1222280741422994  0.1205903337375002  0.1356258227194465
  0.3754211527216014  0.8764278360966613  0.3657584248844458
  0.6234620177479865  0.6239528000092850  0.1329237467685927
  0.6243471289685307  0.1239567281441320  0.6342368050968206
  0.5017717473908503 -0.0022412845172546  0.0005670829411803
  0.7495505551631839 -0.0020122451909017  0.2507368786046540
  0.2498798231674647 -0.0000149781681379  0.7510260399098667
 -0.0050954758749315  0.7564795820692959  0.2507310039253004
  0.5045774800150056  0.7558849486417120  0.7505707318782618
  0.7484842706938667  0.7532367288508299  0.5068116589673715
  0.7496534628704302  0.5032047993618369  0.7488095353179837
 -0.0011425525465143 -0.0017378042337607  0.4988561865231465
  0.4987161794922251  0.2430833978069271  0.2464874102337037
  0.2499201892483253  0.4990901547276151  0.2485031577631604
  0.0014250332811552  0.2439581383813089  0.7506288809600763
  0.1244245929181452  0.6260417352704778  0.6336922451397522
  0.7520732824506404  0.2430149343062609  0.0021975490304208
  0.3762431426386268  0.3743260710195807  0.8688598742352046
  0.5012053536731083  0.5008524795224741  0.4996280871050939
  0.2471260426489205  0.7567336021094161  0.0004204599556082
 -0.0011689571532512  0.5017314716096026  0.0006971029046201
  0.2515063297396328  0.2460305408705131  0.4969810895242633
  0.8774166497264843  0.3743049963343941  0.3667328643320561
  0.2551548615611763  0.2526249890486291  0.2695239288215100
  0.7466499773945898  0.7499134304962243  0.7325575107745895
  0.4914674052887824  0.9972643405115080  0.7579247696483813
  0.5080612515331345 -0.0001680254353881  0.2421729477111943
  0.9819007824288565  0.7597806895509988  0.4939853840114676
  0.0250346151469820  0.2427746769136880  0.5026334457464281
  0.7620430180341649  0.4879799628317159  0.0040237558353427
  0.2290626958282032  0.5175760563509769  0.0005996147878762
  0.0073195147138313  0.5125014792628835  0.2251340358437820
  0.9895575514073315  0.4893908103250697  0.7758442335877450
  0.5244926628904909  0.2441855358289568  0.0029357689793032
  0.4817830836628268  0.7447733321703587  0.0026594357139121
  0.2480392491185663  0.0109747461745393  0.4999067769305743
  0.7551087761882002  0.9968369719397552  0.4992464028101147
  0.2603884978974714  0.7609459430760279  0.7778114895439502
  0.7426829716784864  0.2398749402558009  0.2251808368430170
  0.4971340204017075  0.4946349482857438  0.2681929870977908
  0.5077607996518800  0.5110531412671510  0.7233103658107496
  0.9874293603406052  0.2654538508207451  0.0032353713854936
  0.0138119198560634  0.7385020966387832 -0.0022959475934529
  0.0099408538024313  0.0017362787828064  0.7269634179949760
  0.9918671692399550  0.9985100151227805  0.2724984531303506
  0.5009210081355385  0.7347289605654194  0.4968842808327901
  0.4904886529943449  0.2630653048825163  0.5029001249659781
  0.7540474360288614  0.2524990301410885  0.7698431956758418
  0.2446162728115675  0.7499474675202383  0.2311594431277740
  0.2683803560244518  0.4808042124668793  0.4966102196296355
  0.7289289358381017  0.5099001992312304  0.5014059250168921
  0.7514706195084833  0.0139306064730570  0.0034648375081069
  0.2514462684254912  0.9867694706169898  0.9977410775709461
  0.7475793317697772  0.7534745105639076  0.2658681414361946
  0.2442017903250032  0.2392794053888035  0.7237109638472762
 
  0.00000000E+00  0.00000000E+00  0.00000000E+00
  0.00000000E+00  0.00000000E+00  0.00000000E+00
  0.00000000E+00  0.00000000E+00  0.00000000E+00
  0.00000000E+00  0.00000000E+00  0.00000000E+00
  0.00000000E+00  0.00000000E+00  0.00000000E+00
  0.00000000E+00  0.00000000E+00  0.00000000E+00
  0.00000000E+00  0.00000000E+00  0.00000000E+00
  0.00000000E+00  0.00000000E+00  0.00000000E+00
  0.00000000E+00  0.00000000E+00  0.00000000E+00
  0.00000000E+00  0.00000000E+00  0.00000000E+00
  0.00000000E+00  0.00000000E+00  0.00000000E+00
  0.00000000E+00  0.00000000E+00  0.00000000E+00
  0.00000000E+00  0.00000000E+00  0.00000000E+00
  0.00000000E+00  0.00000000E+00  0.00000000E+00
  0.00000000E+00  0.00000000E+00  0.00000000E+00
  0.00000000E+00  0.00000000E+00  0.00000000E+00
  0.00000000E+00  0.00000000E+00  0.00000000E+00
  0.00000000E+00  0.00000000E+00  0.00000000E+00
  0.00000000E+00  0.00000000E+00  0.00000000E+00
  0.00000000E+00  0.00000000E+00  0.00000000E+00
  0.00000000E+00  0.00000000E+00  0.00000000E+00
  0.00000000E+00  0.00000000E+00  0.00000000E+00
  0.00000000E+00  0.00000000E+00  0.00000000E+00
  0.00000000E+00  0.00000000E+00  0.00000000E+00
  0.00000000E+00  0.00000000E+00  0.00000000E+00
  0.00000000E+00  0.00000000E+00  0.00000000E+00
  0.00000000E+00  0.00000000E+00  0.00000000E+00
  0.00000000E+00  0.00000000E+00  0.00000000E+00
  0.00000000E+00  0.00000000E+00  0.00000000E+00
  0.00000000E+00  0.00000000E+00  0.00000000E+00
  0.00000000E+00  0.00000000E+00  0.00000000E+00
  0.00000000E+00  0.00000000E+00  0.00000000E+00
  0.00000000E+00  0.00000000E+00  0.00000000E+00
  0.00000000E+00  0.00000000E+00  0.00000000E+00
  0.00000000E+00  0.00000000E+00  0.00000000E+00
  0.00000000E+00  0.00000000E+00  0.00000000E+00
  0.00000000E+00  0.00000000E+00  0.00000000E+00
  0.00000000E+00  0.00000000E+00  0.00000000E+00
  0.00000000E+00  0.00000000E+00  0.00000000E+00
  0.00000000E+00  0.00000000E+00  0.00000000E+00
  0.00000000E+00  0.00000000E+00  0.00000000E+00
  0.00000000E+00  0.00000000E+00  0.00000000E+00
  0.00000000E+00  0.00000000E+00  0.00000000E+00
  0.00000000E+00  0.00000000E+00  0.00000000E+00
  0.00000000E+00  0.00000000E+00  0.00000000E+00
  0.00000000E+00  0.00000000E+00  0.00000000E+00
  0.00000000E+00  0.00000000E+00  0.00000000E+00
  0.00000000E+00  0.00000000E+00  0.00000000E+00
  0.00000000E+00  0.00000000E+00  0.00000000E+00
  0.00000000E+00  0.00000000E+00  0.00000000E+00
  0.00000000E+00  0.00000000E+00  0.00000000E+00
  0.00000000E+00  0.00000000E+00  0.00000000E+00
  0.00000000E+00  0.00000000E+00  0.00000000E+00
  0.00000000E+00  0.00000000E+00  0.00000000E+00
  0.00000000E+00  0.00000000E+00  0.00000000E+00
  0.00000000E+00  0.00000000E+00  0.00000000E+00
