Iron diiron(III) oxide                  
   1.00000000000000     
     8.3841427259592045    0.0227813073379603   -0.0231692159908279
     0.0232397387779586    8.3653683975733735   -0.0115252779354664
    -0.0234538504945559   -0.0111386609377564    8.5009597944930508
   Zn   Fe   Ni   Co   Mn   O 
     2     3     3     8     8    32
Direct
  0.6211033704256719  0.6181737785159812  0.1202525916866721
  0.1182275414350352  0.1204116610812856  0.1266087348458043
  0.8768034818929721  0.8770693162859030  0.8775531347685492
  0.8750346986670574  0.3787109997842079  0.3746927740967877
 -0.0074743910155935  0.0005652415002619  0.4984366620881833
  0.7481307375354658  0.7510178653251381  0.4977474019496919
 -0.0014165474329601  0.2505125041408274  0.7508110686517621
  0.5013922505034490  0.5015900417004467  0.4986392834671162
 -0.0011872740116625  0.4969951957540898 -0.0063872639688017
  0.7426349968532800 -0.0009922465427468  0.2513228678146969
  0.6202617839794663  0.1264971916866802  0.6263282300490914
  0.5026509541526607 -0.0001930507796943  0.0042791052316824
  0.1224036081591934  0.6221113613738702  0.6228902474352559
  0.7538909514380698  0.4976703400298811  0.7474017697954518
  0.5048664855998559  0.2523636110623227  0.2518276106677041
  0.3790010681130137  0.8758747489621405  0.3799885543237126
  0.5012847751030522  0.7499613975105561  0.7463740835321871
  0.2516205172071053 -0.0021633207223757  0.7486316466740853
  0.3792015067480257  0.3774717836714534  0.8754997182898125
 -0.0055636357883622  0.7505184704543784  0.2537514673353300
  0.2528410942272193  0.7541546430605632  0.0061049481654395
  0.7565643630855891  0.2513022752680413 -0.0010124527941407
  0.2495153265872597  0.2500665607270667  0.4941296467988199
  0.2509323219919622  0.5017310600910786  0.2546907729328740
  0.2465567925317650  0.2683294604780109  0.2609769746052349
  0.7362563825988010  0.7566576985257106  0.7487006775286559
  0.4821176246631518  0.9845311419194170  0.7536447836255387
  0.5212399898103035  0.0002750424703446  0.2471523535369135
  0.9929600421671846  0.7595978098837136  0.4788102949055560
  0.0119586180098125  0.2442532625563025  0.5013923432814312
  0.7523880348472468  0.4788747670762187 -0.0026907685877488
  0.2464508483147963  0.5199606877334773  0.0273105594865057
  0.0120435756985042  0.5167631962776533  0.2510163770315899
  0.9957466653417298  0.4937741898094925  0.7585004438428613
  0.5275130113916330  0.2420701156204032  0.0113421670687091
  0.4896562644718176  0.7501557550749605  0.9800568693347554
  0.2338107881430970  0.0224542722784900  0.4915617370349459
  0.7591605407533853 -0.0004990777522296  0.4864750856233173
  0.2684481257179525  0.7605039902600291  0.7492874464354303
  0.7592387159783217  0.2421131102434097  0.2339417483068254
  0.4773139335609400  0.5023260865358127  0.2565181410746412
  0.5085492478396576  0.5241161661022126  0.7390973379812527
  0.9882183221679967  0.2496252230128495  0.9938779459469327
  0.0099309208108285  0.7524938127117037  0.0208292870955793
  0.0140183626267820 -0.0070287950084141  0.7375905998588084
  0.9868036510444795  0.9811403165845267  0.2587613777225598
  0.5081445606308731  0.7462116921343988  0.5217013048359511
  0.4764699231674055  0.2545041971286165  0.4906417913100921
  0.7561265110278603  0.2477184997506700  0.7734605143974923
  0.2289994705622235  0.7338939447182989  0.2589299660068398
  0.2523612514520734  0.4825188220456308  0.4831782443135113
  0.7446221106808099  0.5026328860290721  0.5009274298465970
  0.7584218281821236  0.0145526116706671  0.0105573397241721
  0.2518865227071738  0.9847587666629661  0.0030367451635451
  0.7646485036805368  0.7545991776026602  0.2488246845236907
  0.2452188739619051  0.2346997399215669  0.7240255933000440
 
  0.00000000E+00  0.00000000E+00  0.00000000E+00
  0.00000000E+00  0.00000000E+00  0.00000000E+00
  0.00000000E+00  0.00000000E+00  0.00000000E+00
  0.00000000E+00  0.00000000E+00  0.00000000E+00
  0.00000000E+00  0.00000000E+00  0.00000000E+00
  0.00000000E+00  0.00000000E+00  0.00000000E+00
  0.00000000E+00  0.00000000E+00  0.00000000E+00
  0.00000000E+00  0.00000000E+00  0.00000000E+00
  0.00000000E+00  0.00000000E+00  0.00000000E+00
  0.00000000E+00  0.00000000E+00  0.00000000E+00
  0.00000000E+00  0.00000000E+00  0.00000000E+00
  0.00000000E+00  0.00000000E+00  0.00000000E+00
  0.00000000E+00  0.00000000E+00  0.00000000E+00
  0.00000000E+00  0.00000000E+00  0.00000000E+00
  0.00000000E+00  0.00000000E+00  0.00000000E+00
  0.00000000E+00  0.00000000E+00  0.00000000E+00
  0.00000000E+00  0.00000000E+00  0.00000000E+00
  0.00000000E+00  0.00000000E+00  0.00000000E+00
  0.00000000E+00  0.00000000E+00  0.00000000E+00
  0.00000000E+00  0.00000000E+00  0.00000000E+00
  0.00000000E+00  0.00000000E+00  0.00000000E+00
  0.00000000E+00  0.00000000E+00  0.00000000E+00
  0.00000000E+00  0.00000000E+00  0.00000000E+00
  0.00000000E+00  0.00000000E+00  0.00000000E+00
  0.00000000E+00  0.00000000E+00  0.00000000E+00
  0.00000000E+00  0.00000000E+00  0.00000000E+00
  0.00000000E+00  0.00000000E+00  0.00000000E+00
  0.00000000E+00  0.00000000E+00  0.00000000E+00
  0.00000000E+00  0.00000000E+00  0.00000000E+00
  0.00000000E+00  0.00000000E+00  0.00000000E+00
  0.00000000E+00  0.00000000E+00  0.00000000E+00
  0.00000000E+00  0.00000000E+00  0.00000000E+00
  0.00000000E+00  0.00000000E+00  0.00000000E+00
  0.00000000E+00  0.00000000E+00  0.00000000E+00
  0.00000000E+00  0.00000000E+00  0.00000000E+00
  0.00000000E+00  0.00000000E+00  0.00000000E+00
  0.00000000E+00  0.00000000E+00  0.00000000E+00
  0.00000000E+00  0.00000000E+00  0.00000000E+00
  0.00000000E+00  0.00000000E+00  0.00000000E+00
  0.00000000E+00  0.00000000E+00  0.00000000E+00
  0.00000000E+00  0.00000000E+00  0.00000000E+00
  0.00000000E+00  0.00000000E+00  0.00000000E+00
  0.00000000E+00  0.00000000E+00  0.00000000E+00
  0.00000000E+00  0.00000000E+00  0.00000000E+00
  0.00000000E+00  0.00000000E+00  0.00000000E+00
  0.00000000E+00  0.00000000E+00  0.00000000E+00
  0.00000000E+00  0.00000000E+00  0.00000000E+00
  0.00000000E+00  0.00000000E+00  0.00000000E+00
  0.00000000E+00  0.00000000E+00  0.00000000E+00
  0.00000000E+00  0.00000000E+00  0.00000000E+00
  0.00000000E+00  0.00000000E+00  0.00000000E+00
  0.00000000E+00  0.00000000E+00  0.00000000E+00
  0.00000000E+00  0.00000000E+00  0.00000000E+00
  0.00000000E+00  0.00000000E+00  0.00000000E+00
  0.00000000E+00  0.00000000E+00  0.00000000E+00
  0.00000000E+00  0.00000000E+00  0.00000000E+00
