Iron diiron(III) oxide                  
   1.00000000000000     
     8.3859743854723199   -0.0058856213360121    0.0021307850902650
    -0.0058671091390299    8.3480165552052927   -0.0155993534395532
     0.0020664795260412   -0.0150010307384015    8.5162073880561184
   Zn   Fe   Ni   Co   Mn   O 
     2     3     3     8     8    32
Direct
  0.8725709195084720  0.8734154771696184  0.8722115464304462
  0.1268767747685928  0.1308043585526181  0.1264283713788549
  0.7599344605641409 -0.0013485252330378  0.2441354447405744
  0.3741667183969468  0.8714100210984753  0.3684735359375403
  0.5005070040826998  0.7473855458958784  0.7513496497248102
  0.7520551628413344  0.5031395257282227  0.7486755872239979
 -0.0017104436681943  0.7485036032770965  0.2447712306602871
  0.6259675951620093  0.1194372310105874  0.6295105157600680
  0.6230343408880132  0.6212593838031061  0.1269839097121351
  0.1234169455416838  0.6231603022504594  0.6229901813338121
  0.8776434065575983  0.3777254863137213  0.3760598224499029
  0.0003044998352668  0.5095868569544525  0.0017243535620196
  0.2556910139660671  0.2493574282085251  0.4980563091089276
  0.4998471300102998  0.4978097796469737  0.5000625427874121
  0.2450144232447495  0.7515865641994250  0.0024055606687354
  0.5026362881636867  0.2512515784261686  0.2608876062185161
  0.7526627594515756  0.7512447394254886  0.4980241923976950
  0.2439625840702107 -0.0011429512166651  0.7548096857268762
  0.7532336140922661  0.2501953151069191  0.0005463461056910
  0.0009089986917259 -0.0015775642620328  0.4933554848975616
  0.3754876521966523  0.3722750200700932  0.8769810612726766
 -0.0035266188745221  0.2475691567269939  0.7530640556586659
  0.4991692229254802 -0.0003098034859599  0.0032330750920562
  0.2479856127822644  0.4963358921464179  0.2518922583017905
  0.2507783062972580  0.2682528069166019  0.2550763220292837
  0.7424132422396428  0.7552899333148898  0.7270356311221550
  0.4834272338205570  0.9998642064293386  0.7755443477675595
  0.5104847123428800 -0.0029223138559403  0.2323986259374889
  0.9820007867400220  0.7629180297338641  0.4924470514937446
 -0.0024202018418599  0.2346734125788149  0.5244314441143956
  0.7593447756979653  0.4792741582318730  0.9945764644988011
  0.2347538665089798  0.5033645134664083  0.0231625794585519
  0.0166743885255408  0.5036812031708848  0.2380811541831498
 -0.0013121001982877  0.4784660392686245  0.7617352767119299
  0.5229794942851761  0.2318191814115732  0.0085006202507676
  0.5020123672279161  0.7697789725723443  0.9877346836668888
  0.2351272610650265 -0.0047225834142262  0.4966790087714089
  0.7663437871963449  0.9898305795208668  0.4839411372560282
  0.2581429363628726  0.7660791307680725  0.7568136183647500
  0.7524325277129510  0.2398776548537662  0.2273719988084270
  0.4769468148960734  0.4953184933163881  0.2531702488690877
  0.5096362884860645  0.5175465219377106  0.7421659590610037
  0.9869886631955247  0.2584397402690446  0.9846383545654130
 -0.0078125421599021  0.7341806135154804  0.0006984782842408
  0.0075261805892828  0.0140929899476644  0.7536988080239789
  0.9912285296889504  0.9937589167549890  0.2420254814362963
  0.5171207441295642  0.7616175083297602  0.5081784616934981
  0.4977433587758979  0.2520566530307586  0.4974453286535237
  0.7636177544245755  0.2511098806986554  0.7697791065500776
  0.2452616120514661  0.7331378132040519  0.2463955595800092
  0.2533370492303167  0.4981806535405184  0.4780022207289860
  0.7477780160039406  0.5244858122431809  0.5055031038441267
  0.7367876420976184  0.0118845056595495  0.0043935552208176
  0.2728332801416325  0.0012633335046979  0.0064026442084418
  0.7536414249096434  0.7570256966484061  0.2703171364970381
  0.2263417343573473  0.2313015206178439  0.7450232611970788
 
  0.00000000E+00  0.00000000E+00  0.00000000E+00
  0.00000000E+00  0.00000000E+00  0.00000000E+00
  0.00000000E+00  0.00000000E+00  0.00000000E+00
  0.00000000E+00  0.00000000E+00  0.00000000E+00
  0.00000000E+00  0.00000000E+00  0.00000000E+00
  0.00000000E+00  0.00000000E+00  0.00000000E+00
  0.00000000E+00  0.00000000E+00  0.00000000E+00
  0.00000000E+00  0.00000000E+00  0.00000000E+00
  0.00000000E+00  0.00000000E+00  0.00000000E+00
  0.00000000E+00  0.00000000E+00  0.00000000E+00
  0.00000000E+00  0.00000000E+00  0.00000000E+00
  0.00000000E+00  0.00000000E+00  0.00000000E+00
  0.00000000E+00  0.00000000E+00  0.00000000E+00
  0.00000000E+00  0.00000000E+00  0.00000000E+00
  0.00000000E+00  0.00000000E+00  0.00000000E+00
  0.00000000E+00  0.00000000E+00  0.00000000E+00
  0.00000000E+00  0.00000000E+00  0.00000000E+00
  0.00000000E+00  0.00000000E+00  0.00000000E+00
  0.00000000E+00  0.00000000E+00  0.00000000E+00
  0.00000000E+00  0.00000000E+00  0.00000000E+00
  0.00000000E+00  0.00000000E+00  0.00000000E+00
  0.00000000E+00  0.00000000E+00  0.00000000E+00
  0.00000000E+00  0.00000000E+00  0.00000000E+00
  0.00000000E+00  0.00000000E+00  0.00000000E+00
  0.00000000E+00  0.00000000E+00  0.00000000E+00
  0.00000000E+00  0.00000000E+00  0.00000000E+00
  0.00000000E+00  0.00000000E+00  0.00000000E+00
  0.00000000E+00  0.00000000E+00  0.00000000E+00
  0.00000000E+00  0.00000000E+00  0.00000000E+00
  0.00000000E+00  0.00000000E+00  0.00000000E+00
  0.00000000E+00  0.00000000E+00  0.00000000E+00
  0.00000000E+00  0.00000000E+00  0.00000000E+00
  0.00000000E+00  0.00000000E+00  0.00000000E+00
  0.00000000E+00  0.00000000E+00  0.00000000E+00
  0.00000000E+00  0.00000000E+00  0.00000000E+00
  0.00000000E+00  0.00000000E+00  0.00000000E+00
  0.00000000E+00  0.00000000E+00  0.00000000E+00
  0.00000000E+00  0.00000000E+00  0.00000000E+00
  0.00000000E+00  0.00000000E+00  0.00000000E+00
  0.00000000E+00  0.00000000E+00  0.00000000E+00
  0.00000000E+00  0.00000000E+00  0.00000000E+00
  0.00000000E+00  0.00000000E+00  0.00000000E+00
  0.00000000E+00  0.00000000E+00  0.00000000E+00
  0.00000000E+00  0.00000000E+00  0.00000000E+00
  0.00000000E+00  0.00000000E+00  0.00000000E+00
  0.00000000E+00  0.00000000E+00  0.00000000E+00
  0.00000000E+00  0.00000000E+00  0.00000000E+00
  0.00000000E+00  0.00000000E+00  0.00000000E+00
  0.00000000E+00  0.00000000E+00  0.00000000E+00
  0.00000000E+00  0.00000000E+00  0.00000000E+00
  0.00000000E+00  0.00000000E+00  0.00000000E+00
  0.00000000E+00  0.00000000E+00  0.00000000E+00
  0.00000000E+00  0.00000000E+00  0.00000000E+00
  0.00000000E+00  0.00000000E+00  0.00000000E+00
  0.00000000E+00  0.00000000E+00  0.00000000E+00
  0.00000000E+00  0.00000000E+00  0.00000000E+00
