Iron diiron(III) oxide                  
   1.00000000000000     
     8.4196767815611047    0.0334460019200564   -0.0068066705252201
     0.0339157277630877    8.3640030336348499    0.0063650927582522
    -0.0068681552498325    0.0062923340294558    8.4095141429973967
   Zn   Fe   Ni   Co   Mn   O 
     2     3     3     8     8    32
Direct
  0.8658396435127282  0.8744950876951633  0.8751479275536769
  0.3764550347485206  0.8717424501914041  0.3775810361043075
  0.1339493901660225  0.1192286761500646  0.1278191050557768
  0.0046393268868130  0.5033945433884843  0.0049996042685271
  0.2543093357996108  0.5027810281060540  0.2485425545652444
  0.2533400519636498 -0.0027290939316897  0.7467666780044552
  0.5011274701701298  0.5008631075876795  0.4998107386751827
  0.4963444228840363  0.2480236220705709  0.2470717150358870
  0.3745128521105930  0.3764079322462959  0.8707494091340411
  0.5038389876824960  0.7517684387096996  0.7518472242525689
  0.6235771865865527  0.6270636980443883  0.1274976277935720
  0.8700000322946180  0.3767100789534206  0.3724954735568164
  0.2536351442623729  0.7500641428012426 -0.0006543870310469
  0.7404667425007698 -0.0000120893177366  0.2528357695713730
  0.7407338218060818  0.7517222007160701  0.5006259862835944
  0.6237424378716144  0.1228068312494656  0.6277235758159151
  0.7450535748166409  0.2517562117599760  0.0028042825420649
  0.1350375547579825  0.6273845577272693  0.6233067095631597
  0.4995208073229636 -0.0027890538732156 -0.0023565274855768
  0.2522618334945494  0.2447762282950481  0.4955032844164229
 -0.0002345455898294  0.2489482842385001  0.7503247954086315
  0.0005203695942627  0.7533742665283059  0.2503416132074268
  0.0001648346228022  0.0015873759951687  0.4988046977541546
  0.7465643773293040  0.5044027305214767  0.7519934427602295
  0.2520795808692370  0.2492270433922650  0.2658832923863282
  0.7385067219227400  0.7327923293217234  0.7495881640877023
  0.4968907329349103  0.9829773473382992  0.7657688581130226
  0.4971494002580726 -0.0023325731767711  0.2279488455109572
  0.9962476578656618  0.7714522013708622  0.4828775393019290
  0.0169563149208680  0.2323768437855795  0.4941937115007171
  0.7607139471065971  0.4888060341977926  0.9865293171399636
  0.2393862015829156  0.5012001223942996  0.0152349432990793
  0.0131852081419711  0.5208134927487216  0.2460705301991222
  0.9827561156409566  0.4893698917182939  0.7621625202218524
  0.4953153793015987  0.2268952341624114  0.0009449145923832
  0.5034513017929398  0.7675081990812888  0.9826368907158071
  0.2349402646854883  0.0125541630170490  0.5034014832680412
  0.7746230624676186  0.0035928128172042  0.4957015596125974
  0.2781909314929841  0.7572971874471111  0.7589065325243743
  0.7396191793648185  0.2491243296540910  0.2301355762621543
  0.4818097891347972  0.4954471573301605  0.2560807463342087
  0.5182659494610946  0.5172741513073233  0.7486463777904543
  0.0053416914637114  0.2574381255927295  0.0047367328835752
 -0.0020388111453848  0.7455254525910803  0.0172160291488235
  0.0014002589397174  0.0082854253994706  0.7308038764892082
  0.0012572433956128  0.9875364236512933  0.2630093529416627
  0.5025429187331701  0.7474918908383762  0.5209278414281536
  0.4783381308630202  0.2494465865090398  0.4952604269433603
  0.7643419016267479  0.2656065627755641  0.7656068578014571
  0.2300950674073044  0.7478566818272915  0.2505837098738361
  0.2554436465490905  0.4742136727599424  0.4813933892278819
  0.7454880412761903  0.5001496458449159  0.5255724853900474
  0.7307722716697791  0.0135630731466700 -0.0020174918256201
  0.2664169575156376  0.0003555863660318  0.9908917868680247
  0.7733022157461834  0.7532613858909218  0.2554775223207216
  0.2318100394186670  0.2491222630458644  0.7262433408417672
 
  0.00000000E+00  0.00000000E+00  0.00000000E+00
  0.00000000E+00  0.00000000E+00  0.00000000E+00
  0.00000000E+00  0.00000000E+00  0.00000000E+00
  0.00000000E+00  0.00000000E+00  0.00000000E+00
  0.00000000E+00  0.00000000E+00  0.00000000E+00
  0.00000000E+00  0.00000000E+00  0.00000000E+00
  0.00000000E+00  0.00000000E+00  0.00000000E+00
  0.00000000E+00  0.00000000E+00  0.00000000E+00
  0.00000000E+00  0.00000000E+00  0.00000000E+00
  0.00000000E+00  0.00000000E+00  0.00000000E+00
  0.00000000E+00  0.00000000E+00  0.00000000E+00
  0.00000000E+00  0.00000000E+00  0.00000000E+00
  0.00000000E+00  0.00000000E+00  0.00000000E+00
  0.00000000E+00  0.00000000E+00  0.00000000E+00
  0.00000000E+00  0.00000000E+00  0.00000000E+00
  0.00000000E+00  0.00000000E+00  0.00000000E+00
  0.00000000E+00  0.00000000E+00  0.00000000E+00
  0.00000000E+00  0.00000000E+00  0.00000000E+00
  0.00000000E+00  0.00000000E+00  0.00000000E+00
  0.00000000E+00  0.00000000E+00  0.00000000E+00
  0.00000000E+00  0.00000000E+00  0.00000000E+00
  0.00000000E+00  0.00000000E+00  0.00000000E+00
  0.00000000E+00  0.00000000E+00  0.00000000E+00
  0.00000000E+00  0.00000000E+00  0.00000000E+00
  0.00000000E+00  0.00000000E+00  0.00000000E+00
  0.00000000E+00  0.00000000E+00  0.00000000E+00
  0.00000000E+00  0.00000000E+00  0.00000000E+00
  0.00000000E+00  0.00000000E+00  0.00000000E+00
  0.00000000E+00  0.00000000E+00  0.00000000E+00
  0.00000000E+00  0.00000000E+00  0.00000000E+00
  0.00000000E+00  0.00000000E+00  0.00000000E+00
  0.00000000E+00  0.00000000E+00  0.00000000E+00
  0.00000000E+00  0.00000000E+00  0.00000000E+00
  0.00000000E+00  0.00000000E+00  0.00000000E+00
  0.00000000E+00  0.00000000E+00  0.00000000E+00
  0.00000000E+00  0.00000000E+00  0.00000000E+00
  0.00000000E+00  0.00000000E+00  0.00000000E+00
  0.00000000E+00  0.00000000E+00  0.00000000E+00
  0.00000000E+00  0.00000000E+00  0.00000000E+00
  0.00000000E+00  0.00000000E+00  0.00000000E+00
  0.00000000E+00  0.00000000E+00  0.00000000E+00
  0.00000000E+00  0.00000000E+00  0.00000000E+00
  0.00000000E+00  0.00000000E+00  0.00000000E+00
  0.00000000E+00  0.00000000E+00  0.00000000E+00
  0.00000000E+00  0.00000000E+00  0.00000000E+00
  0.00000000E+00  0.00000000E+00  0.00000000E+00
  0.00000000E+00  0.00000000E+00  0.00000000E+00
  0.00000000E+00  0.00000000E+00  0.00000000E+00
  0.00000000E+00  0.00000000E+00  0.00000000E+00
  0.00000000E+00  0.00000000E+00  0.00000000E+00
  0.00000000E+00  0.00000000E+00  0.00000000E+00
  0.00000000E+00  0.00000000E+00  0.00000000E+00
  0.00000000E+00  0.00000000E+00  0.00000000E+00
  0.00000000E+00  0.00000000E+00  0.00000000E+00
  0.00000000E+00  0.00000000E+00  0.00000000E+00
  0.00000000E+00  0.00000000E+00  0.00000000E+00
