Iron diiron(III) oxide                  
   1.00000000000000     
     8.4604133997501254    0.0081899784701744    0.0019492542980761
     0.0081851917823727    8.3933925077248333   -0.0091401414847562
     0.0019768089391987   -0.0091218045673049    8.4060052107803340
   Zn   Fe   Ni   Co   Mn   O 
     2     3     3     8     8    32
Direct
  0.1212064025662834  0.6235764231033158  0.6232767938344974
  0.6133779660965396  0.1217529940046229  0.6271326007672420
  0.7552144188373849  0.4953788503837687  0.7492419664468741
  0.8834173832581595  0.3755542731605776  0.3746244394054332
  0.2442009867670107 -0.0012324576236775  0.7558392333659404
 -0.0002853635294976  0.2515133101361438  0.7512329902834748
  0.5007690016992526  0.2509220144852019  0.2526810927379937
  0.4999742030765959  0.4981443549954069  0.4980189456579757
 -0.0014207467384351  0.0000769283096710  0.5031919982725974
  0.4979023723176682 -0.0003398334598338  0.0006742931160513
  0.2477690873136821  0.7494759920964780 -0.0013335457055696
  0.0019347242375715  0.5021716718418806 -0.0028959427275519
  0.8794828098242158  0.8750893382150162  0.8744302276558932
  0.6168847986755850  0.6240270622910817  0.1226550213197280
  0.0008284949897623  0.7501821435134893  0.2498322408452043
  0.1193944946888635  0.1269146241140913  0.1268195101698087
  0.7509271475933887  0.7523814355872586  0.4993939848499789
  0.7512636293719913  0.0003958381401169  0.2511144565595484
  0.4999804624256157  0.7503104042541271  0.7462552946796190
  0.2527843383681512  0.2529899897747839  0.5014985847425262
  0.3774650859141194  0.8777514128479652  0.3745028913414033
  0.2511501758951694  0.4991605912782605  0.2527527514235750
  0.3807101494622274  0.3756152405090917  0.8761114075783766
  0.7528495449692656  0.2488538198667033 -0.0003127681538082
  0.2558847593730995  0.2638464988218135  0.2679113441856821
  0.7351039881830721  0.7441747247169881  0.7326917278282148
  0.4894779229231920  0.9807250567651273  0.7513988758867605
  0.5261490741790238  0.0093312786196404  0.2418518112926610
  0.9763932677617891  0.7496399420793515  0.4966782012280210
  0.0169840411214599  0.2548230558543743  0.5046614492687609
  0.7581906468597415  0.4818569086066666  0.9925164199539437
  0.2362560667764361  0.4983920664833578  0.0249441489836732
  0.0169626437686484  0.4973947752803992  0.2440056320352931
  0.9889501463649391  0.4985190559141504  0.7593837281436543
  0.5293508126215108  0.2425433708624999  0.0097077139572316
  0.4945856217943974  0.7522725127676647  0.9742288284082435
  0.2440658374320268  0.0263186978127729  0.5080045723799297
  0.7458019706262411  0.9862327512004134  0.4858290446048622
  0.2696385359453777  0.7558888011380169  0.7414308045684813
  0.7531833413393904  0.2389524212210706  0.2404012864294476
  0.4774771033049648  0.4941152351646966  0.2563099145482002
  0.5180366679008239  0.5218590330199416  0.7399860052839691
  0.9824622854749661  0.2676835429155502  0.9947727613282324
 -0.0002707229890639  0.7264399895955055  0.0054846331685517
  0.0111550957114919  0.0079267243506367  0.7431278867008771
  0.9782762278030063  0.9956115469049911  0.2586789245211483
  0.5217684699511945  0.7430042617689087  0.5152041719765632
  0.4817936416321758  0.2564589480887974  0.4982564034939661
  0.7494071983005828  0.2550453913729123  0.7652879542936659
  0.2439588048421061  0.7258896050881034  0.2469767241291884
  0.2537993085203815  0.4878968032658170  0.4874041857834019
  0.7494488332441761  0.5130275236995984  0.5009934374118281
  0.7552899372493067  0.0171652517760583  0.0199979858384391
  0.2526295732229025  0.9960692965038952  0.9896682422291829
  0.7465609129792131  0.7679962681352838  0.2660655883132982
  0.2434464177008545  0.2422322383794536  0.7294011233578175
 
  0.00000000E+00  0.00000000E+00  0.00000000E+00
  0.00000000E+00  0.00000000E+00  0.00000000E+00
  0.00000000E+00  0.00000000E+00  0.00000000E+00
  0.00000000E+00  0.00000000E+00  0.00000000E+00
  0.00000000E+00  0.00000000E+00  0.00000000E+00
  0.00000000E+00  0.00000000E+00  0.00000000E+00
  0.00000000E+00  0.00000000E+00  0.00000000E+00
  0.00000000E+00  0.00000000E+00  0.00000000E+00
  0.00000000E+00  0.00000000E+00  0.00000000E+00
  0.00000000E+00  0.00000000E+00  0.00000000E+00
  0.00000000E+00  0.00000000E+00  0.00000000E+00
  0.00000000E+00  0.00000000E+00  0.00000000E+00
  0.00000000E+00  0.00000000E+00  0.00000000E+00
  0.00000000E+00  0.00000000E+00  0.00000000E+00
  0.00000000E+00  0.00000000E+00  0.00000000E+00
  0.00000000E+00  0.00000000E+00  0.00000000E+00
  0.00000000E+00  0.00000000E+00  0.00000000E+00
  0.00000000E+00  0.00000000E+00  0.00000000E+00
  0.00000000E+00  0.00000000E+00  0.00000000E+00
  0.00000000E+00  0.00000000E+00  0.00000000E+00
  0.00000000E+00  0.00000000E+00  0.00000000E+00
  0.00000000E+00  0.00000000E+00  0.00000000E+00
  0.00000000E+00  0.00000000E+00  0.00000000E+00
  0.00000000E+00  0.00000000E+00  0.00000000E+00
  0.00000000E+00  0.00000000E+00  0.00000000E+00
  0.00000000E+00  0.00000000E+00  0.00000000E+00
  0.00000000E+00  0.00000000E+00  0.00000000E+00
  0.00000000E+00  0.00000000E+00  0.00000000E+00
  0.00000000E+00  0.00000000E+00  0.00000000E+00
  0.00000000E+00  0.00000000E+00  0.00000000E+00
  0.00000000E+00  0.00000000E+00  0.00000000E+00
  0.00000000E+00  0.00000000E+00  0.00000000E+00
  0.00000000E+00  0.00000000E+00  0.00000000E+00
  0.00000000E+00  0.00000000E+00  0.00000000E+00
  0.00000000E+00  0.00000000E+00  0.00000000E+00
  0.00000000E+00  0.00000000E+00  0.00000000E+00
  0.00000000E+00  0.00000000E+00  0.00000000E+00
  0.00000000E+00  0.00000000E+00  0.00000000E+00
  0.00000000E+00  0.00000000E+00  0.00000000E+00
  0.00000000E+00  0.00000000E+00  0.00000000E+00
  0.00000000E+00  0.00000000E+00  0.00000000E+00
  0.00000000E+00  0.00000000E+00  0.00000000E+00
  0.00000000E+00  0.00000000E+00  0.00000000E+00
  0.00000000E+00  0.00000000E+00  0.00000000E+00
  0.00000000E+00  0.00000000E+00  0.00000000E+00
  0.00000000E+00  0.00000000E+00  0.00000000E+00
  0.00000000E+00  0.00000000E+00  0.00000000E+00
  0.00000000E+00  0.00000000E+00  0.00000000E+00
  0.00000000E+00  0.00000000E+00  0.00000000E+00
  0.00000000E+00  0.00000000E+00  0.00000000E+00
  0.00000000E+00  0.00000000E+00  0.00000000E+00
  0.00000000E+00  0.00000000E+00  0.00000000E+00
  0.00000000E+00  0.00000000E+00  0.00000000E+00
  0.00000000E+00  0.00000000E+00  0.00000000E+00
  0.00000000E+00  0.00000000E+00  0.00000000E+00
  0.00000000E+00  0.00000000E+00  0.00000000E+00
