Iron diiron(III) oxide                  
   1.00000000000000     
     8.3753292328247113   -0.0395112064119252    0.0081962890272324
    -0.0396639808318058    8.4605570569395123   -0.0005755178454765
     0.0081526509901392   -0.0006385192767110    8.4163007634661131
   Zn   Fe   Ni   Co   Mn   O 
     2     3     3     8     8    32
Direct
  0.3798136560661658  0.8787022128958076  0.3864178562778040
  0.6212495588695948  0.6207251071332430  0.1147931164790602
  0.1263637030213422  0.1216342401477015  0.1201791542639996
  0.8752050897818408  0.3779718540953523  0.3801695571652872
  0.7430842390302561 -0.0046819736381046  0.2486409198048342
  0.5020744458007734  0.4999408441125920  0.4990045158148630
  0.5023364595815114  0.0011523626566239  0.0000226287543380
  0.5007200607724330  0.7488935673155942  0.7473339097516830
  0.7489338812699474  0.2489103154140252 -0.0017543508797657
 -0.0008340753716896  0.4975193540440603 -0.0009397404042156
 -0.0006580301233924  0.2495640232580842  0.7498754442289113
  0.2524737754409218  0.2484526326963858  0.5045636587110283
  0.3815787745538863  0.3762391094253489  0.8810199586211513
  0.7424996580910255  0.7491259686976383  0.4942163056269026
  0.6224525868349589  0.1253410878030553  0.6216145155227466
 -0.0046353693530519  0.0038172008637822  0.5027805936395657
  0.2522607922643127  0.0036419056386487  0.7489712164361122
  0.8722061058612767  0.8702529507188503  0.8748182782374927
  0.2559453045746051  0.5021272368370577  0.2510669989682243
  0.7454642180523523  0.4984521192675234  0.7494121163151414
  0.1238545130383114  0.6275172290118820  0.6210929560130505
  0.2561940128496907  0.7539655682245371  0.0049036721017059
  0.5012323464835158  0.2472114700106098  0.2501891334851455
 -0.0001716773840942  0.7535953370152778  0.2490909661016502
  0.2684590603411974  0.2448886698520308  0.2469743977210020
  0.7425456674719602  0.7252263320792706  0.7396002492210771
  0.4876494870132715 -0.0021680680495323  0.7514844736087068
  0.5056494788063752  0.0169867802566075  0.2488255487057258
  0.9868781313083719  0.7606977112273088  0.4750026202282389
  0.0063686363529484  0.2458049206565024  0.4988637246251692
  0.7512103534363086  0.4950562287558363  0.9774457034071131
  0.2509665494038085  0.5254417766646803  0.0172345038995231
  0.0105132628666838  0.5206257819400824  0.2521555431564979
  0.9774029536145560  0.4900884200188568  0.7553117811860345
  0.5052057036612642  0.2420830359683830  0.0244765986237966
  0.4830282694655885  0.7595991010114377 -0.0007771837902255
  0.2443537858050247  0.0001627442809087  0.5239861746677502
  0.7456217122917687  0.9936242437201214  0.4928649081585136
  0.2552973309006284  0.7681593141050430  0.7730091204207178
  0.7361299335979513  0.2432063127248763  0.2551953507221331
  0.4934916855909182  0.4781101806721487  0.2510056459713556
  0.5146480678423755  0.5072705284462712  0.7419559044480881
 -0.0022469227020506  0.2560378957241470  0.0022100320022510
  0.0224276188046411  0.7446989021102243  0.0185094215105912
  0.0223128262308951  0.0078770207859383  0.7480112748136089
  0.9906668812818801  0.9855052584401489  0.2482686835797473
  0.5071612444417668  0.7384270809600211  0.5027362513660836
  0.4978138191796762  0.2526194933612430  0.4838999440877066
  0.7437184351992926  0.2634698181181488  0.7442942547016693
  0.2355722087327854  0.7591124334516727  0.2383112687673878
  0.2606091726574432  0.4920315398131629  0.4775614599114013
  0.7477887709709530  0.5028552333897137  0.5153963966579295
  0.7409767365961226  0.0090688474002801  0.0144423206818613
  0.2541590101820477  0.9867605170290152  0.9858932539419868
  0.7663359394588785  0.7560634031339103  0.2446856938990820
  0.2476401591881731  0.2305368183059621  0.7536812980607599
 
  0.00000000E+00  0.00000000E+00  0.00000000E+00
  0.00000000E+00  0.00000000E+00  0.00000000E+00
  0.00000000E+00  0.00000000E+00  0.00000000E+00
  0.00000000E+00  0.00000000E+00  0.00000000E+00
  0.00000000E+00  0.00000000E+00  0.00000000E+00
  0.00000000E+00  0.00000000E+00  0.00000000E+00
  0.00000000E+00  0.00000000E+00  0.00000000E+00
  0.00000000E+00  0.00000000E+00  0.00000000E+00
  0.00000000E+00  0.00000000E+00  0.00000000E+00
  0.00000000E+00  0.00000000E+00  0.00000000E+00
  0.00000000E+00  0.00000000E+00  0.00000000E+00
  0.00000000E+00  0.00000000E+00  0.00000000E+00
  0.00000000E+00  0.00000000E+00  0.00000000E+00
  0.00000000E+00  0.00000000E+00  0.00000000E+00
  0.00000000E+00  0.00000000E+00  0.00000000E+00
  0.00000000E+00  0.00000000E+00  0.00000000E+00
  0.00000000E+00  0.00000000E+00  0.00000000E+00
  0.00000000E+00  0.00000000E+00  0.00000000E+00
  0.00000000E+00  0.00000000E+00  0.00000000E+00
  0.00000000E+00  0.00000000E+00  0.00000000E+00
  0.00000000E+00  0.00000000E+00  0.00000000E+00
  0.00000000E+00  0.00000000E+00  0.00000000E+00
  0.00000000E+00  0.00000000E+00  0.00000000E+00
  0.00000000E+00  0.00000000E+00  0.00000000E+00
  0.00000000E+00  0.00000000E+00  0.00000000E+00
  0.00000000E+00  0.00000000E+00  0.00000000E+00
  0.00000000E+00  0.00000000E+00  0.00000000E+00
  0.00000000E+00  0.00000000E+00  0.00000000E+00
  0.00000000E+00  0.00000000E+00  0.00000000E+00
  0.00000000E+00  0.00000000E+00  0.00000000E+00
  0.00000000E+00  0.00000000E+00  0.00000000E+00
  0.00000000E+00  0.00000000E+00  0.00000000E+00
  0.00000000E+00  0.00000000E+00  0.00000000E+00
  0.00000000E+00  0.00000000E+00  0.00000000E+00
  0.00000000E+00  0.00000000E+00  0.00000000E+00
  0.00000000E+00  0.00000000E+00  0.00000000E+00
  0.00000000E+00  0.00000000E+00  0.00000000E+00
  0.00000000E+00  0.00000000E+00  0.00000000E+00
  0.00000000E+00  0.00000000E+00  0.00000000E+00
  0.00000000E+00  0.00000000E+00  0.00000000E+00
  0.00000000E+00  0.00000000E+00  0.00000000E+00
  0.00000000E+00  0.00000000E+00  0.00000000E+00
  0.00000000E+00  0.00000000E+00  0.00000000E+00
  0.00000000E+00  0.00000000E+00  0.00000000E+00
  0.00000000E+00  0.00000000E+00  0.00000000E+00
  0.00000000E+00  0.00000000E+00  0.00000000E+00
  0.00000000E+00  0.00000000E+00  0.00000000E+00
  0.00000000E+00  0.00000000E+00  0.00000000E+00
  0.00000000E+00  0.00000000E+00  0.00000000E+00
  0.00000000E+00  0.00000000E+00  0.00000000E+00
  0.00000000E+00  0.00000000E+00  0.00000000E+00
  0.00000000E+00  0.00000000E+00  0.00000000E+00
  0.00000000E+00  0.00000000E+00  0.00000000E+00
  0.00000000E+00  0.00000000E+00  0.00000000E+00
  0.00000000E+00  0.00000000E+00  0.00000000E+00
  0.00000000E+00  0.00000000E+00  0.00000000E+00
