Iron diiron(III) oxide                  
   1.00000000000000     
     8.4700484490219452    0.0082251584039131    0.0129872248992220
     0.0083494291565551    8.4404445267388706   -0.0138876457297149
     0.0128635427678423   -0.0136911476480879    8.3235917462136992
   Zn   Fe   Ni   Co   Mn   O 
     2     3     3     8     8    32
Direct
  0.8803002086396302  0.8743690827050427  0.8787474283312094
  0.1144583446891226  0.1206905753213018  0.1270335631070537
  0.4993955464410026  0.2507527514095590  0.2459710995663559
  0.6213927079390966  0.1250109271269494  0.6266270261140411
  0.3853401631579217  0.8708499662689989  0.3705731664185614
 -0.0016966315857962  0.5006886065739112  0.0058683731425496
 -0.0068280296425056  0.7555627285222770  0.2471085799307059
  0.7472617972720719  0.7541262448642830  0.4970712396589303
  0.7547222945017217  0.5075750544471470  0.7518810459769610
  0.6269128153084695  0.6269403841502601  0.1256869457033728
 -0.0011845590912966  0.2484693182275886  0.7533104869947929
  0.8783484592325064  0.3781694878952429  0.3694704085922215
  0.7488821672698383  0.0004495588214012  0.2494873648223398
  0.5053243371990672 -0.0050674939323178  0.0011527486034662
  0.5091481416717301  0.7530802268976261  0.7530556983459138
  0.2458150901246701  0.5020410507143002  0.2510446546610893
  0.5043397569792842  0.5016579082186818  0.4975842821749422
  0.2472099821047236  0.2467007978539966  0.4952059612057720
  0.2474077729970792  0.7538912586264274  0.0041682298777583
  0.1160246374731852  0.6281108727582277  0.6223571842910500
 -0.0054440814005842 -0.0017041437987822  0.4945096295246036
  0.2490939206655750 -0.0043332468147462  0.7505341662741563
  0.7557748886037122  0.2441992455855122  0.0048203818522908
  0.3763255002260880  0.3790793279490930  0.8729688987769231
  0.2609102328217842  0.2419712729879940  0.2607554443266067
  0.7485797102909126  0.7529512541745540  0.7437064492844323
  0.4804303051035132 -0.0013136555767298  0.7507527275245184
  0.5193603477000831  0.0098144665631131  0.2517894908102584
  0.9880737566715326  0.7685745501400073  0.4771423769324784
  0.0157410947332478  0.2300622125987480  0.4970900123597931
  0.7538261844791976  0.4745807969694560  0.9962600458392851
  0.2413654895799507  0.5265115276488919  0.0062526740366378
  0.0097967279097961  0.5253466966643699  0.2503291231655267
  0.9834242966866392  0.4891313457060661  0.7581461046873665
  0.5234038953071229  0.2423095990325612  0.0112356265363561
  0.4750321931779889  0.7538769014228026 -0.0008651053190179
  0.2568888258977505 -0.0103344574707223  0.5166793441664184
  0.7413242617928208  0.0013463747979705  0.4830221047954401
  0.2532504904176325  0.7671799217079091  0.7707501248160464
  0.7420274099439613  0.2332175432135990  0.2377733176357226
  0.4935942229097252  0.4866781011878979  0.2654245803746216
  0.5176240173049085  0.5059960074305256  0.7281203836258365
  0.9825237993270098  0.2548087998031299  0.0028227702308399
  0.0157224828757906  0.7483449545777919  0.0163889261734490
  0.0209076570837607 -0.0021023007170104  0.7350668013186733
  0.9773859690433413  0.9906046087361725  0.2582205246354919
  0.5044909901018815  0.7296599086255963  0.4981251083611188
  0.4914832304201935  0.2659392423667452  0.4949559786206287
  0.7515493548675265  0.2383752212264152  0.7701010658285150
  0.2451509587191999  0.7593106544956991  0.2361614193608907
  0.2751650536260192  0.4953684126402375  0.4989680270118024
  0.7328469284304169  0.5049111045713699  0.5025054162235979
  0.7529871063408000  0.0134362518370895  0.0177742646865705
  0.2479803316917367  0.9896888185597115  0.9843978167316133
  0.7533339797548348  0.7757391334276637  0.2526675061659761
  0.2454934642126027  0.2267042402583931  0.7312409851054424
 
  0.00000000E+00  0.00000000E+00  0.00000000E+00
  0.00000000E+00  0.00000000E+00  0.00000000E+00
  0.00000000E+00  0.00000000E+00  0.00000000E+00
  0.00000000E+00  0.00000000E+00  0.00000000E+00
  0.00000000E+00  0.00000000E+00  0.00000000E+00
  0.00000000E+00  0.00000000E+00  0.00000000E+00
  0.00000000E+00  0.00000000E+00  0.00000000E+00
  0.00000000E+00  0.00000000E+00  0.00000000E+00
  0.00000000E+00  0.00000000E+00  0.00000000E+00
  0.00000000E+00  0.00000000E+00  0.00000000E+00
  0.00000000E+00  0.00000000E+00  0.00000000E+00
  0.00000000E+00  0.00000000E+00  0.00000000E+00
  0.00000000E+00  0.00000000E+00  0.00000000E+00
  0.00000000E+00  0.00000000E+00  0.00000000E+00
  0.00000000E+00  0.00000000E+00  0.00000000E+00
  0.00000000E+00  0.00000000E+00  0.00000000E+00
  0.00000000E+00  0.00000000E+00  0.00000000E+00
  0.00000000E+00  0.00000000E+00  0.00000000E+00
  0.00000000E+00  0.00000000E+00  0.00000000E+00
  0.00000000E+00  0.00000000E+00  0.00000000E+00
  0.00000000E+00  0.00000000E+00  0.00000000E+00
  0.00000000E+00  0.00000000E+00  0.00000000E+00
  0.00000000E+00  0.00000000E+00  0.00000000E+00
  0.00000000E+00  0.00000000E+00  0.00000000E+00
  0.00000000E+00  0.00000000E+00  0.00000000E+00
  0.00000000E+00  0.00000000E+00  0.00000000E+00
  0.00000000E+00  0.00000000E+00  0.00000000E+00
  0.00000000E+00  0.00000000E+00  0.00000000E+00
  0.00000000E+00  0.00000000E+00  0.00000000E+00
  0.00000000E+00  0.00000000E+00  0.00000000E+00
  0.00000000E+00  0.00000000E+00  0.00000000E+00
  0.00000000E+00  0.00000000E+00  0.00000000E+00
  0.00000000E+00  0.00000000E+00  0.00000000E+00
  0.00000000E+00  0.00000000E+00  0.00000000E+00
  0.00000000E+00  0.00000000E+00  0.00000000E+00
  0.00000000E+00  0.00000000E+00  0.00000000E+00
  0.00000000E+00  0.00000000E+00  0.00000000E+00
  0.00000000E+00  0.00000000E+00  0.00000000E+00
  0.00000000E+00  0.00000000E+00  0.00000000E+00
  0.00000000E+00  0.00000000E+00  0.00000000E+00
  0.00000000E+00  0.00000000E+00  0.00000000E+00
  0.00000000E+00  0.00000000E+00  0.00000000E+00
  0.00000000E+00  0.00000000E+00  0.00000000E+00
  0.00000000E+00  0.00000000E+00  0.00000000E+00
  0.00000000E+00  0.00000000E+00  0.00000000E+00
  0.00000000E+00  0.00000000E+00  0.00000000E+00
  0.00000000E+00  0.00000000E+00  0.00000000E+00
  0.00000000E+00  0.00000000E+00  0.00000000E+00
  0.00000000E+00  0.00000000E+00  0.00000000E+00
  0.00000000E+00  0.00000000E+00  0.00000000E+00
  0.00000000E+00  0.00000000E+00  0.00000000E+00
  0.00000000E+00  0.00000000E+00  0.00000000E+00
  0.00000000E+00  0.00000000E+00  0.00000000E+00
  0.00000000E+00  0.00000000E+00  0.00000000E+00
  0.00000000E+00  0.00000000E+00  0.00000000E+00
  0.00000000E+00  0.00000000E+00  0.00000000E+00
