Iron diiron(III) oxide                  
   1.00000000000000     
     8.4422198369253358    0.0153331836999223   -0.0022731292792358
     0.0152316005220125    8.4521928927546099   -0.0281837006542866
    -0.0023260968300592   -0.0282867417647248    8.3672033463639792
   Zn   Fe   Ni   Co   Mn   O 
     2     3     3     8     8    32
Direct
  0.3753904806233375  0.8681983492597070  0.3752739239267865
  0.1219512007390606  0.6298851397308043  0.6212531290618764
  0.4974778373564702  0.4979907095749630  0.4980273617495664
  0.4985177099336640  0.7459926562776220  0.7477812406586185
  0.1273044640114280  0.1291225955048577  0.1249050824024278
  0.0017577687958806  0.7521172424648609  0.2501665564126808
  0.8755935906907887  0.3694460951750299  0.3766628516947917
  0.7467879598789433 -0.0025678448495329  0.2514531815558765
  0.2509030607237320  0.7503912846365663  0.0025328124091692
  0.7488507111670649  0.2540943723230500  0.0087564826196410
  0.6254818507168980  0.6286354450298318  0.1262515288153963
  0.5012831440323555  0.2485120869348178  0.2515790709823007
  0.2480162640497758  0.2498899913731113  0.4978188166138536
  0.3745943287227587  0.3703400979875484  0.8766736869516435
  0.7507732329150927  0.4989664633715298  0.7498990646051191
  0.0053433628263303 -0.0025909480016622  0.4940251950924432
  0.0026945701619238  0.5004854826160375  0.0010957581431723
  0.7518261096938430  0.7482810675501104  0.4937788447898971
  0.2504058613756094  0.0000230857283891  0.7460104608752538
  0.2473524338222385  0.5053331883892699  0.2508061659859256
  0.4984048617619929  0.0018762267119502  0.0058331904498239
  0.0033784829353350  0.2509373267535010  0.7514830484284881
  0.8723626233449895  0.8736958936279464  0.8793587429868533
  0.6310949402726376  0.1267310972877546  0.6219909305602818
  0.2456408855191876  0.2713231064504614  0.2524648166111821
  0.7375955944889570  0.7459798624146863  0.7249298186278147
  0.4818947828575147  0.9926413095459523  0.7671700810406379
  0.4942210164876850  0.0004915476895507  0.2328510523086107
  0.9784034698523720  0.7534750991322515  0.4971912466206442
 -0.0000855122807136  0.2412957998293438  0.5251653235321456
  0.7750089237216958  0.4987920735814464 -0.0032051278117638
  0.2347475753500266  0.4997889967661163  0.0174121630131783
  0.0157891274374100  0.5060288883480830  0.2320115797147261
  0.0075362239868757  0.4829603770992155  0.7665473847522121
  0.5055701421518187  0.2278595338738508  0.0029739205526533
  0.4985922099081922  0.7704361493363059  0.9872913731196783
  0.2491253949269042 -0.0009765485677221  0.5189044770338029
  0.7569604771423024  0.9780376685157217  0.4818848580047852
  0.2570806533535566  0.7705690512718951  0.7487025096972688
  0.7434187122340266  0.2277956344607113  0.2515534721707547
  0.4761239615431191  0.4985522456948743  0.2541082202943041
  0.4992099389580058  0.5129920023002765  0.7415784536633344
  0.0018682802698373  0.2645161301902156  0.9884572666577627
  0.0085309376313272  0.7237007339416112  0.0038783318474809
  0.0202041280079358  0.0188609730502361  0.7539847382670584
  0.0001523526683302 -0.0049094826805926  0.2433157249545518
  0.5184666105358229  0.7434971917116994  0.5051576787349608
  0.4887027846939220  0.2691818730200533  0.4976781132639431
  0.7783748817976984  0.2553089536608337  0.7619901706901376
  0.2443575965531670  0.7309826376260677  0.2481752510507380
  0.2543486194617894  0.5046071554828805  0.4809390633615139
  0.7394452208827046  0.5167044872432853  0.4988055341392210
  0.7253650721282831  0.0043452171708885  0.0181657520206459
  0.2630846455609183  0.0030230107135144  0.9856854824302491
  0.7578728450017328  0.7657499737863999  0.2630842849619001
  0.2348455966154438  0.2306012418818191  0.7477298569019815
 
  0.00000000E+00  0.00000000E+00  0.00000000E+00
  0.00000000E+00  0.00000000E+00  0.00000000E+00
  0.00000000E+00  0.00000000E+00  0.00000000E+00
  0.00000000E+00  0.00000000E+00  0.00000000E+00
  0.00000000E+00  0.00000000E+00  0.00000000E+00
  0.00000000E+00  0.00000000E+00  0.00000000E+00
  0.00000000E+00  0.00000000E+00  0.00000000E+00
  0.00000000E+00  0.00000000E+00  0.00000000E+00
  0.00000000E+00  0.00000000E+00  0.00000000E+00
  0.00000000E+00  0.00000000E+00  0.00000000E+00
  0.00000000E+00  0.00000000E+00  0.00000000E+00
  0.00000000E+00  0.00000000E+00  0.00000000E+00
  0.00000000E+00  0.00000000E+00  0.00000000E+00
  0.00000000E+00  0.00000000E+00  0.00000000E+00
  0.00000000E+00  0.00000000E+00  0.00000000E+00
  0.00000000E+00  0.00000000E+00  0.00000000E+00
  0.00000000E+00  0.00000000E+00  0.00000000E+00
  0.00000000E+00  0.00000000E+00  0.00000000E+00
  0.00000000E+00  0.00000000E+00  0.00000000E+00
  0.00000000E+00  0.00000000E+00  0.00000000E+00
  0.00000000E+00  0.00000000E+00  0.00000000E+00
  0.00000000E+00  0.00000000E+00  0.00000000E+00
  0.00000000E+00  0.00000000E+00  0.00000000E+00
  0.00000000E+00  0.00000000E+00  0.00000000E+00
  0.00000000E+00  0.00000000E+00  0.00000000E+00
  0.00000000E+00  0.00000000E+00  0.00000000E+00
  0.00000000E+00  0.00000000E+00  0.00000000E+00
  0.00000000E+00  0.00000000E+00  0.00000000E+00
  0.00000000E+00  0.00000000E+00  0.00000000E+00
  0.00000000E+00  0.00000000E+00  0.00000000E+00
  0.00000000E+00  0.00000000E+00  0.00000000E+00
  0.00000000E+00  0.00000000E+00  0.00000000E+00
  0.00000000E+00  0.00000000E+00  0.00000000E+00
  0.00000000E+00  0.00000000E+00  0.00000000E+00
  0.00000000E+00  0.00000000E+00  0.00000000E+00
  0.00000000E+00  0.00000000E+00  0.00000000E+00
  0.00000000E+00  0.00000000E+00  0.00000000E+00
  0.00000000E+00  0.00000000E+00  0.00000000E+00
  0.00000000E+00  0.00000000E+00  0.00000000E+00
  0.00000000E+00  0.00000000E+00  0.00000000E+00
  0.00000000E+00  0.00000000E+00  0.00000000E+00
  0.00000000E+00  0.00000000E+00  0.00000000E+00
  0.00000000E+00  0.00000000E+00  0.00000000E+00
  0.00000000E+00  0.00000000E+00  0.00000000E+00
  0.00000000E+00  0.00000000E+00  0.00000000E+00
  0.00000000E+00  0.00000000E+00  0.00000000E+00
  0.00000000E+00  0.00000000E+00  0.00000000E+00
  0.00000000E+00  0.00000000E+00  0.00000000E+00
  0.00000000E+00  0.00000000E+00  0.00000000E+00
  0.00000000E+00  0.00000000E+00  0.00000000E+00
  0.00000000E+00  0.00000000E+00  0.00000000E+00
  0.00000000E+00  0.00000000E+00  0.00000000E+00
  0.00000000E+00  0.00000000E+00  0.00000000E+00
  0.00000000E+00  0.00000000E+00  0.00000000E+00
  0.00000000E+00  0.00000000E+00  0.00000000E+00
  0.00000000E+00  0.00000000E+00  0.00000000E+00
