Iron diiron(III) oxide                  
   1.00000000000000     
     8.3981666092357710   -0.0093801125726886   -0.0076295476432078
    -0.0093906441558460    8.4049399803703793    0.0088483308275835
    -0.0075688463528497    0.0087802034241449    8.4491522801080539
   Zn   Fe   Ni   Co   Mn   O 
     2     3     3     8     8    32
Direct
  0.1213869802795699  0.6282127632622497  0.6289450985616502
  0.8759526661132603  0.3719244338121039  0.3656024420185415
  0.7553826993502909  0.4978547127489728  0.7500899820059124
  0.1235152107328924  0.1275475069757940  0.1293115075709424
  0.0000774431628577  0.2488571874779635  0.7436032550919051
  0.7509445548277197  0.0049365417582670  0.2534247908157111
  0.0027015724136575  0.7516278963763838  0.2539978346655804
  0.5010587191493262  0.2477355843908484  0.2510148717875689
  0.3787127549443180  0.8740526479254652  0.3705200258410238
  0.2474089674500471  0.2447459179315363  0.4980910803527601
  0.7492433022092193  0.2514865537087198  0.0026344528732375
  0.2494554784046396 -0.0033802707743349  0.7463018489139316
  0.0061127142207568  0.0034378260488422  0.4964598914459323
  0.6248731289090037  0.1247474401573331  0.6281127949510099
 -0.0008777643119457  0.4979907920842899  0.0030772140888118
  0.4976039267532937  0.7530084849222324  0.7461987321155724
  0.4990641497802905  0.0023429735819663  0.0035033185737074
  0.2461575098086982  0.5024973311715718  0.2551706594223123
  0.3751124886431252  0.3752811576017568  0.8701909514295091
  0.6259789236037382  0.6271241086644581  0.1313998372000748
  0.7550573219460600  0.7506213930223480  0.4971087517808574
  0.2488975365538380  0.7493323618475819  0.0028635076191362
  0.8743193541339364  0.8763510054271971  0.8751696046233429
  0.5009470409849451  0.4989746131574180  0.4963409734815186
  0.2497686154243578  0.2706247590933344  0.2546861409173777
  0.7446945133552887  0.7353670993553301  0.7274463952954408
  0.4922329671002553  0.9964219924566173  0.7730424196027990
  0.5069233286299714  0.0072316290103919  0.2321373259015548
  0.9855175812660102  0.7597023221685063  0.4983743381132175
 -0.0082672435370513  0.2371921333465881  0.5066586041702243
  0.7530162877240496  0.4885410794459049  0.9855671863034338
  0.2538411074751599  0.5182099932775995  0.0234926833196566
  0.0199116763888534  0.5064154058699522  0.2496143411122007
  0.9910717021924689  0.4877177375526366  0.7504762216023292
  0.5031448366571738  0.2298233697344710  0.0074490347827752
  0.4823615944652936  0.7690706028332722  0.9975231118890155
  0.2358866185618095 -0.0016067637195747  0.5003060786479993
  0.7596120096028086  0.9799898661420728  0.4979208563439586
  0.2525657106022023  0.7475928120300568  0.7752626623291079
  0.7427536684532360  0.2484781871308160  0.2291205305899555
  0.4789378536941521  0.4932211715594090  0.2681324746415805
  0.5124291378433042  0.5056663035066138  0.7229383382197067
  0.9960564758332792  0.2500215217325416  0.9903598874523298
  0.0214419326960353  0.7435061363117309  0.0100697514511856
  0.0075628301712085  0.0128459874436746  0.7352428880595097
  0.9967664116639591  0.9975208780688247  0.2590266059150370
  0.5209242120379043  0.7332653048320678  0.4961363297325136
  0.4972444618689196  0.2703754608775706  0.4926183780390513
  0.7594207126757473  0.2581640594879318  0.7698438348627402
  0.2470854677599662  0.7325480694470453  0.2352459234940948
  0.2666947663415569  0.5051408684712826  0.4864604057781369
  0.7362266062922751  0.5118307107348216  0.4993154539494203
  0.7270674856481034  0.0086437335395355  0.0090411938851759
  0.2611085561907544  0.9857005965807765  0.0074599419062347
  0.7636385610100516  0.7600242160273671  0.2718956376790698
  0.2332728738473564  0.2434417923698669  0.7380015967826152
 
  0.00000000E+00  0.00000000E+00  0.00000000E+00
  0.00000000E+00  0.00000000E+00  0.00000000E+00
  0.00000000E+00  0.00000000E+00  0.00000000E+00
  0.00000000E+00  0.00000000E+00  0.00000000E+00
  0.00000000E+00  0.00000000E+00  0.00000000E+00
  0.00000000E+00  0.00000000E+00  0.00000000E+00
  0.00000000E+00  0.00000000E+00  0.00000000E+00
  0.00000000E+00  0.00000000E+00  0.00000000E+00
  0.00000000E+00  0.00000000E+00  0.00000000E+00
  0.00000000E+00  0.00000000E+00  0.00000000E+00
  0.00000000E+00  0.00000000E+00  0.00000000E+00
  0.00000000E+00  0.00000000E+00  0.00000000E+00
  0.00000000E+00  0.00000000E+00  0.00000000E+00
  0.00000000E+00  0.00000000E+00  0.00000000E+00
  0.00000000E+00  0.00000000E+00  0.00000000E+00
  0.00000000E+00  0.00000000E+00  0.00000000E+00
  0.00000000E+00  0.00000000E+00  0.00000000E+00
  0.00000000E+00  0.00000000E+00  0.00000000E+00
  0.00000000E+00  0.00000000E+00  0.00000000E+00
  0.00000000E+00  0.00000000E+00  0.00000000E+00
  0.00000000E+00  0.00000000E+00  0.00000000E+00
  0.00000000E+00  0.00000000E+00  0.00000000E+00
  0.00000000E+00  0.00000000E+00  0.00000000E+00
  0.00000000E+00  0.00000000E+00  0.00000000E+00
  0.00000000E+00  0.00000000E+00  0.00000000E+00
  0.00000000E+00  0.00000000E+00  0.00000000E+00
  0.00000000E+00  0.00000000E+00  0.00000000E+00
  0.00000000E+00  0.00000000E+00  0.00000000E+00
  0.00000000E+00  0.00000000E+00  0.00000000E+00
  0.00000000E+00  0.00000000E+00  0.00000000E+00
  0.00000000E+00  0.00000000E+00  0.00000000E+00
  0.00000000E+00  0.00000000E+00  0.00000000E+00
  0.00000000E+00  0.00000000E+00  0.00000000E+00
  0.00000000E+00  0.00000000E+00  0.00000000E+00
  0.00000000E+00  0.00000000E+00  0.00000000E+00
  0.00000000E+00  0.00000000E+00  0.00000000E+00
  0.00000000E+00  0.00000000E+00  0.00000000E+00
  0.00000000E+00  0.00000000E+00  0.00000000E+00
  0.00000000E+00  0.00000000E+00  0.00000000E+00
  0.00000000E+00  0.00000000E+00  0.00000000E+00
  0.00000000E+00  0.00000000E+00  0.00000000E+00
  0.00000000E+00  0.00000000E+00  0.00000000E+00
  0.00000000E+00  0.00000000E+00  0.00000000E+00
  0.00000000E+00  0.00000000E+00  0.00000000E+00
  0.00000000E+00  0.00000000E+00  0.00000000E+00
  0.00000000E+00  0.00000000E+00  0.00000000E+00
  0.00000000E+00  0.00000000E+00  0.00000000E+00
  0.00000000E+00  0.00000000E+00  0.00000000E+00
  0.00000000E+00  0.00000000E+00  0.00000000E+00
  0.00000000E+00  0.00000000E+00  0.00000000E+00
  0.00000000E+00  0.00000000E+00  0.00000000E+00
  0.00000000E+00  0.00000000E+00  0.00000000E+00
  0.00000000E+00  0.00000000E+00  0.00000000E+00
  0.00000000E+00  0.00000000E+00  0.00000000E+00
  0.00000000E+00  0.00000000E+00  0.00000000E+00
  0.00000000E+00  0.00000000E+00  0.00000000E+00
