Iron diiron(III) oxide                  
   1.00000000000000     
     8.4143754489880145   -0.0098733849545449    0.0023242756845217
    -0.0098564681988684    8.3753514014944610    0.0201417337528092
     0.0024073676656919    0.0200733004960002    8.4026671488185336
   Zn   Fe   Ni   Co   Mn   O 
     2     3     3     8     8    32
Direct
  0.6273854779759830  0.6200087037493323  0.1254201894598775
  0.1310488746790053  0.1224987917757184  0.1248545846901755
  0.1306138938856886  0.6220979665916019  0.6216354854753675
  0.5041026603066383  0.5028730539238971  0.5020141585378328
  0.4945835987100153  0.2484897670665043  0.2487424929546443
  0.4988200375791543  0.0019930641521742  0.0034235069435734
  0.7477185419209892  0.2509317526379646  0.0012339236994503
  0.2541707060853026  0.4981278746338746  0.2495102382655887
  0.7457554066799528  0.7511936433445305  0.4981059448417311
  0.7454085237357522 -0.0002908835193247  0.2493469090879107
  0.7453912582825838  0.4997457071486703  0.7530908201019365
  0.6259335913059192  0.1239610795417352  0.6200392607900449
  0.5026678732612614  0.7504879296903730  0.7484020273031862
  0.3719135104717741  0.8802378264249737  0.3751817028811654
  0.3770228847338677  0.3750653369334147  0.8808578929982153
 -0.0031322968642643 -0.0009048112318714  0.4961340852728214
  0.8666832473255384  0.8796237761225958  0.8796326796325968
  0.2530795383142267  0.0031650015073789  0.7510776602297987
  0.0025448372415824  0.2483661130469335  0.7515813505586240
  0.0013504434892030  0.4992856522120959  0.0012939970770280
  0.0005880215825134  0.7540681208367607  0.2467765837964404
  0.2505897388562534  0.2483184193963036  0.5000325112122954
  0.8704487916931392  0.3722471616075597  0.3715047745426416
  0.2543750087871224  0.7504207394495812  0.0023498677613818
  0.2607308425449472  0.2527409631993651  0.2617386654296643
  0.7435764464146900  0.7442192327425129  0.7388625686547170
  0.4791471993722419 -0.0000941137253087  0.7594570182999090
  0.4970811535860918  0.0234024601753595  0.2452019864740156
  0.0095513598366571  0.7472372161778132  0.4790235862679192
  0.0179340008652773  0.2488067618002891  0.5200399139938957
  0.7743256167057327  0.4949820421309296  0.9980115462310237
  0.2344857696896642  0.5194152071459792  0.0042497765255390
  0.0077601578293045  0.5173969696673952  0.2308278564871064
  0.0082384414196092  0.4884613162121367  0.7633251553953876
  0.5044471670622765  0.2470591214647180  0.0221760025534978
  0.4799977838544032  0.7510404168413098  0.0009881873130528
  0.2456599925734478  0.0148094980530387  0.5222804113900140
  0.7570345016248651  0.9930768767892449  0.4784601648209366
  0.2441601591282613  0.7655390796468643  0.7638745539480474
  0.7250051170353909  0.2355354760350777  0.2442189551750822
  0.4962802831410144  0.4800068977169610  0.2563915603624658
  0.5010914680696955  0.5009842025525508  0.7377341535769729
  0.0041308229132440  0.2648337230381121  0.9891552639104451
  0.0155497217801439  0.7376745812837823  0.0117632679112267
  0.0182976863884151  0.0178231579743747  0.7500393887021641
  0.9990228742686416  0.9824243268537780  0.2467005175577954
  0.4927269258013039  0.7359999556478887  0.5036617544251165
  0.4823183031693902  0.2558029388092096  0.4819256839830496
  0.7758816035326740  0.2500023368593828  0.7560507367824431
  0.2349254286184580  0.7475225705412655  0.2306493531975226
  0.2536974093463168  0.4839070939892231  0.4941931345424537
  0.7376703397430973  0.5093396526726301  0.5079167677583215
  0.7385459251144951  0.0107871023237368  0.0230053041884556
  0.2517075346515654  0.9832150657933579  0.9840587349866432
  0.7711865248326868  0.7589178474576547  0.2489226766771291
  0.2387672690467936  0.2351182350865901  0.7428527043636601
 
  0.00000000E+00  0.00000000E+00  0.00000000E+00
  0.00000000E+00  0.00000000E+00  0.00000000E+00
  0.00000000E+00  0.00000000E+00  0.00000000E+00
  0.00000000E+00  0.00000000E+00  0.00000000E+00
  0.00000000E+00  0.00000000E+00  0.00000000E+00
  0.00000000E+00  0.00000000E+00  0.00000000E+00
  0.00000000E+00  0.00000000E+00  0.00000000E+00
  0.00000000E+00  0.00000000E+00  0.00000000E+00
  0.00000000E+00  0.00000000E+00  0.00000000E+00
  0.00000000E+00  0.00000000E+00  0.00000000E+00
  0.00000000E+00  0.00000000E+00  0.00000000E+00
  0.00000000E+00  0.00000000E+00  0.00000000E+00
  0.00000000E+00  0.00000000E+00  0.00000000E+00
  0.00000000E+00  0.00000000E+00  0.00000000E+00
  0.00000000E+00  0.00000000E+00  0.00000000E+00
  0.00000000E+00  0.00000000E+00  0.00000000E+00
  0.00000000E+00  0.00000000E+00  0.00000000E+00
  0.00000000E+00  0.00000000E+00  0.00000000E+00
  0.00000000E+00  0.00000000E+00  0.00000000E+00
  0.00000000E+00  0.00000000E+00  0.00000000E+00
  0.00000000E+00  0.00000000E+00  0.00000000E+00
  0.00000000E+00  0.00000000E+00  0.00000000E+00
  0.00000000E+00  0.00000000E+00  0.00000000E+00
  0.00000000E+00  0.00000000E+00  0.00000000E+00
  0.00000000E+00  0.00000000E+00  0.00000000E+00
  0.00000000E+00  0.00000000E+00  0.00000000E+00
  0.00000000E+00  0.00000000E+00  0.00000000E+00
  0.00000000E+00  0.00000000E+00  0.00000000E+00
  0.00000000E+00  0.00000000E+00  0.00000000E+00
  0.00000000E+00  0.00000000E+00  0.00000000E+00
  0.00000000E+00  0.00000000E+00  0.00000000E+00
  0.00000000E+00  0.00000000E+00  0.00000000E+00
  0.00000000E+00  0.00000000E+00  0.00000000E+00
  0.00000000E+00  0.00000000E+00  0.00000000E+00
  0.00000000E+00  0.00000000E+00  0.00000000E+00
  0.00000000E+00  0.00000000E+00  0.00000000E+00
  0.00000000E+00  0.00000000E+00  0.00000000E+00
  0.00000000E+00  0.00000000E+00  0.00000000E+00
  0.00000000E+00  0.00000000E+00  0.00000000E+00
  0.00000000E+00  0.00000000E+00  0.00000000E+00
  0.00000000E+00  0.00000000E+00  0.00000000E+00
  0.00000000E+00  0.00000000E+00  0.00000000E+00
  0.00000000E+00  0.00000000E+00  0.00000000E+00
  0.00000000E+00  0.00000000E+00  0.00000000E+00
  0.00000000E+00  0.00000000E+00  0.00000000E+00
  0.00000000E+00  0.00000000E+00  0.00000000E+00
  0.00000000E+00  0.00000000E+00  0.00000000E+00
  0.00000000E+00  0.00000000E+00  0.00000000E+00
  0.00000000E+00  0.00000000E+00  0.00000000E+00
  0.00000000E+00  0.00000000E+00  0.00000000E+00
  0.00000000E+00  0.00000000E+00  0.00000000E+00
  0.00000000E+00  0.00000000E+00  0.00000000E+00
  0.00000000E+00  0.00000000E+00  0.00000000E+00
  0.00000000E+00  0.00000000E+00  0.00000000E+00
  0.00000000E+00  0.00000000E+00  0.00000000E+00
  0.00000000E+00  0.00000000E+00  0.00000000E+00
