Iron diiron(III) oxide                  
   1.00000000000000     
     8.4235565406194386   -0.0028462393149139    0.0379381796081868
    -0.0027885320713126    8.4137419946129128   -0.0077590353560279
     0.0381232343837340   -0.0077500670512203    8.3906597146288266
   Zn   Fe   Ni   Co   Mn   O 
     2     3     3     8     8    32
Direct
  0.1159818552191538  0.6240191141218856  0.6145434568388317
  0.6206985542096564  0.6280724515918389  0.1228862024537747
  0.5020863834463881  0.4962058277105974  0.4947358306991040
  0.0028703079898023  0.2534485665113401  0.7469902164787108
  0.7544965208710459  0.4997193035468905  0.7539926125132850
 -0.0008496393737886 -0.0027466699167715  0.4989667506240169
  0.5018105212184416  0.0018033288305320  0.0025965613396147
  0.5012518323724009  0.2532889019127651  0.2472355728817890
  0.7501100510103640  0.2509463960747871  0.0024305247067602
  0.3837639734672838  0.3720433955554426  0.8816743270643435
  0.7487700693626114  0.7480562722614179  0.4970968548151141
 -0.0042969537617753  0.7485403765675990  0.2565131840389618
 -0.0046786554695453  0.4988284607850710  0.0035072657745435
  0.1176790162150073  0.1275321242293017  0.1225216478087442
  0.8774800966001034  0.3735948178318935  0.3770332562689050
  0.2469003975634849  0.2509998569058925  0.4963795342441902
  0.6242880790465567  0.1230742296727413  0.6221137191104645
  0.2512146040165785  0.7482690099485713  0.0009752452854104
  0.2507981513618129  0.5007451473844535  0.2495506360561800
  0.4993745594597707  0.7477294348765716  0.7489657375626196
  0.3793354157603684  0.8759335951249908  0.3777715406483740
  0.8767125681929920  0.8699111710986682  0.8765708128693356
  0.7496995196217999 -0.0021485375317464  0.2493983298678498
  0.2481665753023977 -0.0002741861080714  0.7512762979625816
  0.2542020152372308  0.2742184736841047  0.2462422112113318
  0.7297714122917260  0.7441950339454035  0.7296735149320982
  0.4805853629747043  0.9778371023940328  0.7558535129679324
  0.5222453354517103  0.0091357956294206  0.2437759564264867
  0.9781441528833028  0.7517944680893347  0.4889705596439043
  0.0066125971412203  0.2408361212371168  0.5131774261000941
  0.7514010537852613  0.5067427669447099  0.9883943663275144
  0.2505261196467026  0.5170451118652956  0.0166745132258265
  0.0215321410586445  0.5156584506120480  0.2527866052581202
  0.9928186880650357  0.4936560968647428  0.7502263504862466
  0.5241643606799887  0.2418361135311269  0.0066440207205423
  0.4834612617376332  0.7530663256820986  0.9824133976208006
  0.2424185336849516  0.0037331070131503  0.5246801480637204
  0.7560767722835421  0.9763664907567885  0.4814235532948963
  0.2603783355936902  0.7592317630079810  0.7610778967600293
  0.7500983079681808  0.2289030280928181  0.2400933004535011
  0.4818397637737000  0.5046186659004070  0.2561527192344215
  0.5059408960996518  0.5180958263950256  0.7396472847758622
  0.9783802726982149  0.2559591480755377  0.9896955083054332
  0.0256615181547792  0.7437300708957556  0.0154153665935995
  0.0214325270375858  0.0096680136672868  0.7448783779855520
  0.9840849112063170  0.9814880703244255  0.2524596910522140
  0.5188126918710463  0.7411866416733049  0.5195438696093847
  0.4882461192303551  0.2677695313840884  0.4904741159714488
  0.7606949503105085  0.2623124679212571  0.7659861904149049
  0.2429038267099911  0.7379412708064816  0.2320439490176998
  0.2594395102216878  0.5078546108244516  0.4793515881466273
  0.7395187887287296  0.5178605354121415  0.5070125675251027
  0.7422293979631501  0.0006732089788382  0.0220392230151681
  0.2541840130779939  0.9803374362418974  0.9876559382662253
  0.7540979690698175  0.7604855202402566  0.2635611944050053
  0.2444325896600364  0.2281703429220107  0.7562489642748002
 
  0.00000000E+00  0.00000000E+00  0.00000000E+00
  0.00000000E+00  0.00000000E+00  0.00000000E+00
  0.00000000E+00  0.00000000E+00  0.00000000E+00
  0.00000000E+00  0.00000000E+00  0.00000000E+00
  0.00000000E+00  0.00000000E+00  0.00000000E+00
  0.00000000E+00  0.00000000E+00  0.00000000E+00
  0.00000000E+00  0.00000000E+00  0.00000000E+00
  0.00000000E+00  0.00000000E+00  0.00000000E+00
  0.00000000E+00  0.00000000E+00  0.00000000E+00
  0.00000000E+00  0.00000000E+00  0.00000000E+00
  0.00000000E+00  0.00000000E+00  0.00000000E+00
  0.00000000E+00  0.00000000E+00  0.00000000E+00
  0.00000000E+00  0.00000000E+00  0.00000000E+00
  0.00000000E+00  0.00000000E+00  0.00000000E+00
  0.00000000E+00  0.00000000E+00  0.00000000E+00
  0.00000000E+00  0.00000000E+00  0.00000000E+00
  0.00000000E+00  0.00000000E+00  0.00000000E+00
  0.00000000E+00  0.00000000E+00  0.00000000E+00
  0.00000000E+00  0.00000000E+00  0.00000000E+00
  0.00000000E+00  0.00000000E+00  0.00000000E+00
  0.00000000E+00  0.00000000E+00  0.00000000E+00
  0.00000000E+00  0.00000000E+00  0.00000000E+00
  0.00000000E+00  0.00000000E+00  0.00000000E+00
  0.00000000E+00  0.00000000E+00  0.00000000E+00
  0.00000000E+00  0.00000000E+00  0.00000000E+00
  0.00000000E+00  0.00000000E+00  0.00000000E+00
  0.00000000E+00  0.00000000E+00  0.00000000E+00
  0.00000000E+00  0.00000000E+00  0.00000000E+00
  0.00000000E+00  0.00000000E+00  0.00000000E+00
  0.00000000E+00  0.00000000E+00  0.00000000E+00
  0.00000000E+00  0.00000000E+00  0.00000000E+00
  0.00000000E+00  0.00000000E+00  0.00000000E+00
  0.00000000E+00  0.00000000E+00  0.00000000E+00
  0.00000000E+00  0.00000000E+00  0.00000000E+00
  0.00000000E+00  0.00000000E+00  0.00000000E+00
  0.00000000E+00  0.00000000E+00  0.00000000E+00
  0.00000000E+00  0.00000000E+00  0.00000000E+00
  0.00000000E+00  0.00000000E+00  0.00000000E+00
  0.00000000E+00  0.00000000E+00  0.00000000E+00
  0.00000000E+00  0.00000000E+00  0.00000000E+00
  0.00000000E+00  0.00000000E+00  0.00000000E+00
  0.00000000E+00  0.00000000E+00  0.00000000E+00
  0.00000000E+00  0.00000000E+00  0.00000000E+00
  0.00000000E+00  0.00000000E+00  0.00000000E+00
  0.00000000E+00  0.00000000E+00  0.00000000E+00
  0.00000000E+00  0.00000000E+00  0.00000000E+00
  0.00000000E+00  0.00000000E+00  0.00000000E+00
  0.00000000E+00  0.00000000E+00  0.00000000E+00
  0.00000000E+00  0.00000000E+00  0.00000000E+00
  0.00000000E+00  0.00000000E+00  0.00000000E+00
  0.00000000E+00  0.00000000E+00  0.00000000E+00
  0.00000000E+00  0.00000000E+00  0.00000000E+00
  0.00000000E+00  0.00000000E+00  0.00000000E+00
  0.00000000E+00  0.00000000E+00  0.00000000E+00
  0.00000000E+00  0.00000000E+00  0.00000000E+00
  0.00000000E+00  0.00000000E+00  0.00000000E+00
