Iron diiron(III) oxide                  
   1.00000000000000     
     8.4535758937222703   -0.0315509694909155    0.0376269499199471
    -0.0314313171103283    8.3415308848279661   -0.0101078044891843
     0.0375398903419087   -0.0102033942556689    8.4584475877310439
   Zn   Fe   Ni   Co   Mn   O 
     2     3     3     8     8    32
Direct
  0.3780237336128117  0.8721831023509661  0.3755701561209485
  0.6224893712987855  0.1263149770240808  0.6195715653296888
  0.1186641496033139  0.6276847400200218  0.6241461403691694
  0.6238711226751552  0.6286827023527332  0.1185574444847169
  0.3798057494710104  0.3723126557538599  0.8834355767073732
  0.0035417808609298  0.7493774069968504  0.2465905833577607
  0.7499352165776172  0.2483470703649225 -0.0028443244444195
  0.0010501780985381  0.5009850831005354  0.0015388861361148
  0.5013516917701760  0.7519667107527939  0.7505943534053339
  0.1185900397422777  0.1240112699304475  0.1202035860447905
  0.5026306193272954 -0.0039779633955543 -0.0028284247147419
  0.2441565405881231  0.7517359844131120  0.0064554146643193
  0.8802015522157505  0.8742411545182055  0.8807437838191193
  0.0007638381632605 -0.0047106824292975  0.4976729564251867
  0.2467197307951246  0.5056217305044132  0.2473796245369047
  0.7492704502521618  0.7544699576777169  0.5021712075175052
  0.2554083201304275 -0.0002268802328070  0.7487947476016082
  0.8777694589602050  0.3738840277731160  0.3789470963017227
  0.2554836790835490  0.2474946482174093  0.5013258481052127
  0.7457089183180755  0.5000414394092347  0.7536302121837927
  0.7489700412356506 -0.0004002582085086  0.2506876499220467
  0.4981545096784926  0.5052098226553348  0.4994337613743940
  0.4997300149157624  0.2467159472172570  0.2494808098061632
 -0.0031255588404545  0.2479107877950671  0.7540672277951052
  0.2651384929721997  0.2481886775875191  0.2720206844062782
  0.7474738824177901  0.7304919028093413  0.7480630126748015
  0.4824235434118784 -0.0010927182304114  0.7486642002708179
  0.5145714634692747  0.0158629350059359  0.2526441056124644
  0.9956635987379641  0.7498579525453231  0.4918874990200141
  0.0297626563481035  0.2472051755380223  0.5201514725341213
  0.7534963324811275  0.4980109468735250  0.9841815693743374
  0.2457074488464115  0.5058914047757319 -0.0041895722779983
  0.0110713513877108  0.5060846368683574  0.2385844830159447
  0.9800376668183480  0.4899025783939234  0.7485637711218784
  0.5003747172172326  0.2439941093531816  0.0228834820949461
  0.4814432604161176  0.7500960319456061  0.9962844994135311
  0.2536192941732729  0.0166268586362162  0.5158152907314064
  0.7531588156761841  0.0021813728314013  0.4815577082430791
  0.2453844508952406  0.7679515458299148  0.7531866779946121
  0.7299616456266013  0.2351328470584957  0.2444415395576528
  0.4983209896928655  0.4808261069406944  0.2449522020440322
  0.5177059519189978  0.4972894960357123  0.7564680595275863
  0.9909498718719199  0.2574187895787474  0.9801977627065406
  0.0213552550031059  0.7432397086377635  0.0053962823366532
  0.0234517184785647  0.0144619528580675  0.7456903357004356
  0.9753997660540047 -0.0008533314312826  0.2559249491996010
  0.5002329487159728  0.7331230111024910  0.5049397440272158
  0.4879590406302787  0.2645476184989214  0.4824999271211918
  0.7464888914633173  0.2654762160503456  0.7528607487497333
  0.2494569038503312  0.7504152485213103  0.2383513058292804
  0.2610893982043782  0.4852081304125337  0.5054512758920724
  0.7294708238448678  0.5023051309533654  0.5242510052426683
  0.7442253327336905  0.0045010837462484  0.0217460905770612
  0.2537430075012215  0.9937633441628960  0.9759721322247237
  0.7498916056684779  0.7648375934789484  0.2500443505215423
  0.2618047249385096  0.2371782080692443  0.7351875216619612
 
  0.00000000E+00  0.00000000E+00  0.00000000E+00
  0.00000000E+00  0.00000000E+00  0.00000000E+00
  0.00000000E+00  0.00000000E+00  0.00000000E+00
  0.00000000E+00  0.00000000E+00  0.00000000E+00
  0.00000000E+00  0.00000000E+00  0.00000000E+00
  0.00000000E+00  0.00000000E+00  0.00000000E+00
  0.00000000E+00  0.00000000E+00  0.00000000E+00
  0.00000000E+00  0.00000000E+00  0.00000000E+00
  0.00000000E+00  0.00000000E+00  0.00000000E+00
  0.00000000E+00  0.00000000E+00  0.00000000E+00
  0.00000000E+00  0.00000000E+00  0.00000000E+00
  0.00000000E+00  0.00000000E+00  0.00000000E+00
  0.00000000E+00  0.00000000E+00  0.00000000E+00
  0.00000000E+00  0.00000000E+00  0.00000000E+00
  0.00000000E+00  0.00000000E+00  0.00000000E+00
  0.00000000E+00  0.00000000E+00  0.00000000E+00
  0.00000000E+00  0.00000000E+00  0.00000000E+00
  0.00000000E+00  0.00000000E+00  0.00000000E+00
  0.00000000E+00  0.00000000E+00  0.00000000E+00
  0.00000000E+00  0.00000000E+00  0.00000000E+00
  0.00000000E+00  0.00000000E+00  0.00000000E+00
  0.00000000E+00  0.00000000E+00  0.00000000E+00
  0.00000000E+00  0.00000000E+00  0.00000000E+00
  0.00000000E+00  0.00000000E+00  0.00000000E+00
  0.00000000E+00  0.00000000E+00  0.00000000E+00
  0.00000000E+00  0.00000000E+00  0.00000000E+00
  0.00000000E+00  0.00000000E+00  0.00000000E+00
  0.00000000E+00  0.00000000E+00  0.00000000E+00
  0.00000000E+00  0.00000000E+00  0.00000000E+00
  0.00000000E+00  0.00000000E+00  0.00000000E+00
  0.00000000E+00  0.00000000E+00  0.00000000E+00
  0.00000000E+00  0.00000000E+00  0.00000000E+00
  0.00000000E+00  0.00000000E+00  0.00000000E+00
  0.00000000E+00  0.00000000E+00  0.00000000E+00
  0.00000000E+00  0.00000000E+00  0.00000000E+00
  0.00000000E+00  0.00000000E+00  0.00000000E+00
  0.00000000E+00  0.00000000E+00  0.00000000E+00
  0.00000000E+00  0.00000000E+00  0.00000000E+00
  0.00000000E+00  0.00000000E+00  0.00000000E+00
  0.00000000E+00  0.00000000E+00  0.00000000E+00
  0.00000000E+00  0.00000000E+00  0.00000000E+00
  0.00000000E+00  0.00000000E+00  0.00000000E+00
  0.00000000E+00  0.00000000E+00  0.00000000E+00
  0.00000000E+00  0.00000000E+00  0.00000000E+00
  0.00000000E+00  0.00000000E+00  0.00000000E+00
  0.00000000E+00  0.00000000E+00  0.00000000E+00
  0.00000000E+00  0.00000000E+00  0.00000000E+00
  0.00000000E+00  0.00000000E+00  0.00000000E+00
  0.00000000E+00  0.00000000E+00  0.00000000E+00
  0.00000000E+00  0.00000000E+00  0.00000000E+00
  0.00000000E+00  0.00000000E+00  0.00000000E+00
  0.00000000E+00  0.00000000E+00  0.00000000E+00
  0.00000000E+00  0.00000000E+00  0.00000000E+00
  0.00000000E+00  0.00000000E+00  0.00000000E+00
  0.00000000E+00  0.00000000E+00  0.00000000E+00
  0.00000000E+00  0.00000000E+00  0.00000000E+00
