Iron diiron(III) oxide                  
   1.00000000000000     
     8.4361138134181086   -0.0058388215756245   -0.0064736719554726
    -0.0058611485056849    8.4332176844991498   -0.0031820878676014
    -0.0064452866117369   -0.0031372946901021    8.3665313418757812
   Zn   Fe   Ni   Co   Mn   O 
     2     3     3     8     8    32
Direct
  0.3732963395419637  0.8792232253865184  0.3708417454268584
  0.6320987350530137  0.1209398192535634  0.6259288041483264
  0.1280413718848981  0.1201150746222439  0.1312844206200522
  0.6275191562553998  0.6245157280672301  0.1285811876344610
  0.3723254996308435  0.3794378993866197  0.8693099287137642
  0.7460188105148036  0.0018344209822591  0.2514154437594354
  0.2526438553455724  0.0002834111278783  0.7479945238670296
  0.7450920589111225  0.7513475473861286  0.4972030650697349
 -0.0013425499906998  0.7459407996588131  0.2488635523759978
  0.5069555076271000  0.2502329182324450  0.2548541003629754
 -0.0014354426003442  0.4989769205030502  0.0051361156851304
  0.5035827866084484  0.4990784242519348  0.4972195198197051
  0.2499791742186026  0.5009866969918105  0.2508174171326367
  0.7501351233594125  0.2532350710193699  0.0049623325837674
  0.8714316057112154  0.3789304194701870  0.3729317875108649
  0.7499847230974374  0.4987826680897787  0.7475569004779977
  0.1254889841606676  0.6227855360458078  0.6232426512790105
  0.2510846773121929  0.7507621651197297  0.0037204525846503
  0.8704939732412489  0.8773574242841442  0.8728539292574465
 -0.0019805679280308  0.2485106206776068  0.7497460193328309
  0.2548565853438521  0.2453359437118895  0.5003608549916022
  0.4999933664473853  0.0028027905936201  0.0021435007942300
  0.4989209012952059  0.7543887621681046  0.7458664167908896
 -0.0025893454008631  0.0007362800728977  0.4982422305148432
  0.2542590393131375  0.2458321684093343  0.2693326808787800
  0.7228074706501437  0.7433980106358781  0.7419052186166225
  0.4972818792592009  0.9851674950049898  0.7660836870716095
  0.5001924777959935  0.0061834028128803  0.2291162081740062
  0.9913775117423609  0.7765989030112157  0.4992302426325254
  0.0155616740344020  0.2378243098009282  0.5139605934862728
  0.7536202819324865  0.4961243508530079  0.9927963567803672
  0.2528073746487656  0.5207367690793503 -0.0025537860900727
  0.0126897292253002  0.5066776098109864  0.2429510972482532
  0.9967871126148798  0.4720609002191172  0.7610752175103900
  0.4911565526374697  0.2321487633012750 -0.0081786081562374
  0.4909136681648214  0.7658166867934261  0.9899495858219569
  0.2329292041892932  0.0124846161062321  0.5033539303821603
  0.7697990735190253 -0.0031743005015663  0.4942248527288124
  0.2686370296007802  0.7603113654047353  0.7697295646502720
  0.7435179279721132  0.2390449385881739  0.2416262983567602
  0.4939326863044969  0.4942890400404992  0.2513400668101370
  0.4955351667683683  0.5226560183464175  0.7493612282997909
  0.0078310191117193  0.2404023020927032  0.9832963355569340
  0.0280307614926318  0.7481635529694568 -0.0020882279341287
  0.0091845939911731  0.0172923860677722  0.7296541361761929
  0.9955565362257830 -0.0016953563169119  0.2650628843721109
  0.4953011090193313  0.7543984302028007  0.5199423849346898
  0.4801466913703459  0.2437832764443778  0.5067023096076297
  0.7725970325384868  0.2481998404053142  0.7576496639549682
  0.2477393609443062  0.7496651228639489  0.2304554683496245
  0.2605212913706201  0.4698299331490389  0.4964288547797579
  0.7410813645233274  0.5098120984502765  0.5110497903825081
  0.7227355291335090  0.0092040691831383  0.0078897251817087
  0.2632018954427153  0.9854062304794613 -0.0024294865038600
  0.7530038597094704  0.7598434834701677  0.2534846040559505
  0.2366677651130938  0.2449730157179433  0.7365202211492654
 
  0.00000000E+00  0.00000000E+00  0.00000000E+00
  0.00000000E+00  0.00000000E+00  0.00000000E+00
  0.00000000E+00  0.00000000E+00  0.00000000E+00
  0.00000000E+00  0.00000000E+00  0.00000000E+00
  0.00000000E+00  0.00000000E+00  0.00000000E+00
  0.00000000E+00  0.00000000E+00  0.00000000E+00
  0.00000000E+00  0.00000000E+00  0.00000000E+00
  0.00000000E+00  0.00000000E+00  0.00000000E+00
  0.00000000E+00  0.00000000E+00  0.00000000E+00
  0.00000000E+00  0.00000000E+00  0.00000000E+00
  0.00000000E+00  0.00000000E+00  0.00000000E+00
  0.00000000E+00  0.00000000E+00  0.00000000E+00
  0.00000000E+00  0.00000000E+00  0.00000000E+00
  0.00000000E+00  0.00000000E+00  0.00000000E+00
  0.00000000E+00  0.00000000E+00  0.00000000E+00
  0.00000000E+00  0.00000000E+00  0.00000000E+00
  0.00000000E+00  0.00000000E+00  0.00000000E+00
  0.00000000E+00  0.00000000E+00  0.00000000E+00
  0.00000000E+00  0.00000000E+00  0.00000000E+00
  0.00000000E+00  0.00000000E+00  0.00000000E+00
  0.00000000E+00  0.00000000E+00  0.00000000E+00
  0.00000000E+00  0.00000000E+00  0.00000000E+00
  0.00000000E+00  0.00000000E+00  0.00000000E+00
  0.00000000E+00  0.00000000E+00  0.00000000E+00
  0.00000000E+00  0.00000000E+00  0.00000000E+00
  0.00000000E+00  0.00000000E+00  0.00000000E+00
  0.00000000E+00  0.00000000E+00  0.00000000E+00
  0.00000000E+00  0.00000000E+00  0.00000000E+00
  0.00000000E+00  0.00000000E+00  0.00000000E+00
  0.00000000E+00  0.00000000E+00  0.00000000E+00
  0.00000000E+00  0.00000000E+00  0.00000000E+00
  0.00000000E+00  0.00000000E+00  0.00000000E+00
  0.00000000E+00  0.00000000E+00  0.00000000E+00
  0.00000000E+00  0.00000000E+00  0.00000000E+00
  0.00000000E+00  0.00000000E+00  0.00000000E+00
  0.00000000E+00  0.00000000E+00  0.00000000E+00
  0.00000000E+00  0.00000000E+00  0.00000000E+00
  0.00000000E+00  0.00000000E+00  0.00000000E+00
  0.00000000E+00  0.00000000E+00  0.00000000E+00
  0.00000000E+00  0.00000000E+00  0.00000000E+00
  0.00000000E+00  0.00000000E+00  0.00000000E+00
  0.00000000E+00  0.00000000E+00  0.00000000E+00
  0.00000000E+00  0.00000000E+00  0.00000000E+00
  0.00000000E+00  0.00000000E+00  0.00000000E+00
  0.00000000E+00  0.00000000E+00  0.00000000E+00
  0.00000000E+00  0.00000000E+00  0.00000000E+00
  0.00000000E+00  0.00000000E+00  0.00000000E+00
  0.00000000E+00  0.00000000E+00  0.00000000E+00
  0.00000000E+00  0.00000000E+00  0.00000000E+00
  0.00000000E+00  0.00000000E+00  0.00000000E+00
  0.00000000E+00  0.00000000E+00  0.00000000E+00
  0.00000000E+00  0.00000000E+00  0.00000000E+00
  0.00000000E+00  0.00000000E+00  0.00000000E+00
  0.00000000E+00  0.00000000E+00  0.00000000E+00
  0.00000000E+00  0.00000000E+00  0.00000000E+00
  0.00000000E+00  0.00000000E+00  0.00000000E+00
