Iron diiron(III) oxide                  
   1.00000000000000     
     8.3496576442110619   -0.0039990452107561   -0.0024651285301858
    -0.0039778069157481    8.4958116458918003   -0.0031439650582142
    -0.0024484981700426   -0.0032883266966616    8.3510669585158990
   Zn   Fe   Ni   Co   Mn   O 
     2     3     3     8     8    32
Direct
  0.3720804473633705  0.8824595428630514  0.3738459005823360
  0.8770314519320931  0.3888401293966546  0.3740376385051869
  0.8736273860825814  0.8807174219495741  0.8753253420611585
  0.5004135188974749  0.2499464857076124  0.2542382500724898
  0.5045633932492267  0.7548209011073129  0.7499820349062598
  0.2538989164334808  0.7504784185796151  0.0051341035260402
 -0.0022159134611940  0.0005078957279134  0.4966065210673412
  0.2471693827295285  0.5008519190776782  0.2511931503594435
  0.1276419163919061  0.1145405469556385  0.1261896592910489
  0.4997183197615678  0.5046550637350300  0.4978222316855170
  0.7490401112808593  0.5007454614976720  0.7480748709913237
  0.6234645742440255  0.6190734563194503  0.1270780873921571
 -0.0000057640389192  0.4994617993301774  0.0028038847713470
  0.2517165246008088 -0.0072770680891700  0.7470670237238916
  0.7518617029852058  0.0022021937108546  0.2542956634084231
  0.6237247887900674  0.1171862153460082  0.6250256941118268
 -0.0028706325121481  0.2484348658967170  0.7479105551806967
  0.7528763587291857  0.2492074685886061  0.0017287027412065
  0.2457125531503848  0.2454008878616122  0.4950683744740075
  0.5006739775074612 -0.0056348789898298  0.0009874294737483
  0.3746380129153836  0.3843401297068992  0.8756440624917438
  0.1304265510905135  0.6218228209803666  0.6227521942888811
  0.7460615562517895  0.7529771522015858  0.4959203954989222
  0.0015917947162173  0.7528836131555304  0.2511883707476875
  0.2553038953472587  0.2523083056676100  0.2647285268162902
  0.7451224215958406  0.7551993419088363  0.7339395059921315
  0.5026741855088120  0.9846661930805183  0.7712936062709387
  0.5051453472781554  0.0087940827106894  0.2322860232342462
  0.9814051464133982  0.7580598603954602  0.4822079335439031
  0.0079047574354699  0.2465888875674973  0.5119617420862095
  0.7529476220173744  0.4724272783606188  0.9969891577623978
  0.2415274604154622  0.5129043222432915  0.0245837747541038
  0.0117600957738169  0.5224878671948153  0.2481112465510323
  0.9945844437033531  0.4721940192093624  0.7574616757433350
  0.5181441380449905  0.2284522887057269  0.0060781826227103
  0.5046460084483896  0.7684144275785818  0.9889406225599724
  0.2408382463465892  0.0197666556742539  0.5010696020422493
  0.7543352882445071  0.9797842555525290  0.4933126389611432
  0.2736048658026388  0.7541045113141345  0.7604347940663926
  0.7457194576619566  0.2511397935670958  0.2353488859900264
  0.4814600816264374  0.4842177949499127  0.2510843876407941
  0.5091834502865048  0.5289279530589054  0.7405634668846641
  0.9852084202447232  0.2441482242285844  0.9835591148848566
 -0.0030846771396271  0.7529829381023099  0.0164573646486999
  0.0002844397848372  0.0153054593355026  0.7467037642062477
  0.9919557624398195  0.9763415584603132  0.2529842891326699
  0.5148902302953916  0.7563595348216102  0.5099353719323263
  0.4797841980207488  0.2483144944362825  0.4929594940648293
  0.7642094115968974  0.2479329085693853  0.7661847394391851
  0.2298760911512008  0.7470405002493221  0.2536809529858998
  0.2530806184009903  0.4736961525382959  0.4808795796616382
  0.7463219582162349  0.5246851087189573  0.5012807554033594
  0.7386219619451659  0.0141736462868986  0.0040947898321907
  0.2752917478776210  0.9921719325016337  0.9955376197432642
  0.7647155169458693  0.7513815115292257  0.2648795695926087
  0.2296964791783002  0.2463857488652771  0.7305466795970007
 
  0.00000000E+00  0.00000000E+00  0.00000000E+00
  0.00000000E+00  0.00000000E+00  0.00000000E+00
  0.00000000E+00  0.00000000E+00  0.00000000E+00
  0.00000000E+00  0.00000000E+00  0.00000000E+00
  0.00000000E+00  0.00000000E+00  0.00000000E+00
  0.00000000E+00  0.00000000E+00  0.00000000E+00
  0.00000000E+00  0.00000000E+00  0.00000000E+00
  0.00000000E+00  0.00000000E+00  0.00000000E+00
  0.00000000E+00  0.00000000E+00  0.00000000E+00
  0.00000000E+00  0.00000000E+00  0.00000000E+00
  0.00000000E+00  0.00000000E+00  0.00000000E+00
  0.00000000E+00  0.00000000E+00  0.00000000E+00
  0.00000000E+00  0.00000000E+00  0.00000000E+00
  0.00000000E+00  0.00000000E+00  0.00000000E+00
  0.00000000E+00  0.00000000E+00  0.00000000E+00
  0.00000000E+00  0.00000000E+00  0.00000000E+00
  0.00000000E+00  0.00000000E+00  0.00000000E+00
  0.00000000E+00  0.00000000E+00  0.00000000E+00
  0.00000000E+00  0.00000000E+00  0.00000000E+00
  0.00000000E+00  0.00000000E+00  0.00000000E+00
  0.00000000E+00  0.00000000E+00  0.00000000E+00
  0.00000000E+00  0.00000000E+00  0.00000000E+00
  0.00000000E+00  0.00000000E+00  0.00000000E+00
  0.00000000E+00  0.00000000E+00  0.00000000E+00
  0.00000000E+00  0.00000000E+00  0.00000000E+00
  0.00000000E+00  0.00000000E+00  0.00000000E+00
  0.00000000E+00  0.00000000E+00  0.00000000E+00
  0.00000000E+00  0.00000000E+00  0.00000000E+00
  0.00000000E+00  0.00000000E+00  0.00000000E+00
  0.00000000E+00  0.00000000E+00  0.00000000E+00
  0.00000000E+00  0.00000000E+00  0.00000000E+00
  0.00000000E+00  0.00000000E+00  0.00000000E+00
  0.00000000E+00  0.00000000E+00  0.00000000E+00
  0.00000000E+00  0.00000000E+00  0.00000000E+00
  0.00000000E+00  0.00000000E+00  0.00000000E+00
  0.00000000E+00  0.00000000E+00  0.00000000E+00
  0.00000000E+00  0.00000000E+00  0.00000000E+00
  0.00000000E+00  0.00000000E+00  0.00000000E+00
  0.00000000E+00  0.00000000E+00  0.00000000E+00
  0.00000000E+00  0.00000000E+00  0.00000000E+00
  0.00000000E+00  0.00000000E+00  0.00000000E+00
  0.00000000E+00  0.00000000E+00  0.00000000E+00
  0.00000000E+00  0.00000000E+00  0.00000000E+00
  0.00000000E+00  0.00000000E+00  0.00000000E+00
  0.00000000E+00  0.00000000E+00  0.00000000E+00
  0.00000000E+00  0.00000000E+00  0.00000000E+00
  0.00000000E+00  0.00000000E+00  0.00000000E+00
  0.00000000E+00  0.00000000E+00  0.00000000E+00
  0.00000000E+00  0.00000000E+00  0.00000000E+00
  0.00000000E+00  0.00000000E+00  0.00000000E+00
  0.00000000E+00  0.00000000E+00  0.00000000E+00
  0.00000000E+00  0.00000000E+00  0.00000000E+00
  0.00000000E+00  0.00000000E+00  0.00000000E+00
  0.00000000E+00  0.00000000E+00  0.00000000E+00
  0.00000000E+00  0.00000000E+00  0.00000000E+00
  0.00000000E+00  0.00000000E+00  0.00000000E+00
