Iron diiron(III) oxide                  
   1.00000000000000     
     8.4028848249621184   -0.0225971736836770   -0.0015006749253847
    -0.0228058276040205    8.3806009550608618   -0.0137826459035970
    -0.0015417444339240   -0.0137890486026663    8.4369873825180619
   Zn   Fe   Ni   Co   Mn   O 
     2     3     3     8     8    32
Direct
  0.3835684146127941  0.8717398786969870  0.3777640464740498
  0.1206362868837310  0.6219049098821701  0.6230706427912092
  0.6228280588006774  0.1236416689693343  0.6215868216601509
  0.2481475378651501 -0.0011975512401503  0.7537731359571586
  0.2525712555750099  0.7505484252860237  0.0037153367484077
 -0.0044670079479987  0.2532999074844267  0.7480014792165623
  0.4988282420495100  0.0002508653716514  0.0030244591020495
  0.5031293498199756  0.2496188943743157  0.2499349234587885
  0.6202453083686342  0.6239349988207168  0.1170886873421916
 -0.0015061650375941  0.4956609414530127 -0.0010873393895286
  0.7521263360145178  0.5008991323943937  0.7482207398576335
  0.5044832246831324  0.5005959708845631  0.4970551879880608
  0.7472365210651639  0.7455024555677626  0.4990886504138971
  0.8777206927755938  0.3767290888500346  0.3795021764807745
  0.7487890371304524  0.2509702230658525  0.0019456867582068
  0.1184376286651494  0.1299869189090367  0.1219761187308652
  0.0027214173586998  0.7483694692635365  0.2531173139328119
  0.4981777765967648  0.7492985588668711  0.7459235367835870
  0.3828061823852739  0.3767172933319903  0.8783444320367710
  0.2547868725753423  0.5017203775640053  0.2540124774364971
  0.7443278160340200  0.0039184635578244  0.2504958609912774
  0.8765024813596850  0.8764947254274258  0.8820706021758966
  0.0032766642836866  0.0008348589446585  0.4959394006693076
  0.2487346716887671  0.2496471781916953  0.4974565591579191
  0.2529316554404652  0.2665385089310526  0.2647318952449648
  0.7240665329852808  0.7524442974003870  0.7474706968044431
  0.4892277472689463  0.9858885465674768  0.7491108177331204
  0.5173049398565593  0.0040897528711557  0.2501207826181214
  0.0015866495858954  0.7687613129112242  0.4843403837674792
  0.0185781373599609  0.2315193769204056  0.5021229795336642
  0.7514789211642160  0.4859737935310816  0.9797243192914141
  0.2475975103836864  0.5129665649130898  0.0250347516414206
  0.0214847971387685  0.5122098707774974  0.2512712056895536
  0.9848648006675805  0.4969689505936999  0.7524630274498568
  0.5206282808941090  0.2378140361163213  0.0100707179319041
  0.4829997200040511  0.7573041338020438  0.9777531896874397
  0.2353738918986856  0.0147844202213856  0.4983809953918917
  0.7684812175495901  0.0015236033575246  0.4868165020168815
  0.2613588784091724  0.7561114042028461  0.7506197879176786
  0.7461349916708321  0.2336347055411203  0.2515071583293792
  0.4827945405130780  0.4925354933184615  0.2564501839209522
  0.5151644957468881  0.5218137066257449  0.7420152987895221
  0.9795391340605133  0.2533825672842107  0.9885830489607336
  0.0207779428466771  0.7451186280371506  0.0247443032981516
  0.0121502080516888  0.0010156364123468  0.7223552970360346
  0.9840784833289596  0.9925083674656006  0.2650651408445408
  0.5001228792598212  0.7459817673709843  0.5204887450795326
  0.4791474396292711  0.2493900199401193  0.4977466000833737
  0.7513732829713988  0.2460145197318239  0.7502101623984341
  0.2559128965935339  0.7322689928082983  0.2513103182599376
  0.2508194725951320  0.4804439409783606  0.4880971145604723
  0.7473102428467973  0.5050279634056408  0.5183799145588319
  0.7435785313565118  0.0156498777279887  0.0257976917188208
  0.2520596174236016  0.9888903472126609  0.9883400684418430
  0.7524167325758867  0.7714844788322508  0.2490535282761104
  0.2445468243163068  0.2388527602719045  0.7278024359489510
 
  0.00000000E+00  0.00000000E+00  0.00000000E+00
  0.00000000E+00  0.00000000E+00  0.00000000E+00
  0.00000000E+00  0.00000000E+00  0.00000000E+00
  0.00000000E+00  0.00000000E+00  0.00000000E+00
  0.00000000E+00  0.00000000E+00  0.00000000E+00
  0.00000000E+00  0.00000000E+00  0.00000000E+00
  0.00000000E+00  0.00000000E+00  0.00000000E+00
  0.00000000E+00  0.00000000E+00  0.00000000E+00
  0.00000000E+00  0.00000000E+00  0.00000000E+00
  0.00000000E+00  0.00000000E+00  0.00000000E+00
  0.00000000E+00  0.00000000E+00  0.00000000E+00
  0.00000000E+00  0.00000000E+00  0.00000000E+00
  0.00000000E+00  0.00000000E+00  0.00000000E+00
  0.00000000E+00  0.00000000E+00  0.00000000E+00
  0.00000000E+00  0.00000000E+00  0.00000000E+00
  0.00000000E+00  0.00000000E+00  0.00000000E+00
  0.00000000E+00  0.00000000E+00  0.00000000E+00
  0.00000000E+00  0.00000000E+00  0.00000000E+00
  0.00000000E+00  0.00000000E+00  0.00000000E+00
  0.00000000E+00  0.00000000E+00  0.00000000E+00
  0.00000000E+00  0.00000000E+00  0.00000000E+00
  0.00000000E+00  0.00000000E+00  0.00000000E+00
  0.00000000E+00  0.00000000E+00  0.00000000E+00
  0.00000000E+00  0.00000000E+00  0.00000000E+00
  0.00000000E+00  0.00000000E+00  0.00000000E+00
  0.00000000E+00  0.00000000E+00  0.00000000E+00
  0.00000000E+00  0.00000000E+00  0.00000000E+00
  0.00000000E+00  0.00000000E+00  0.00000000E+00
  0.00000000E+00  0.00000000E+00  0.00000000E+00
  0.00000000E+00  0.00000000E+00  0.00000000E+00
  0.00000000E+00  0.00000000E+00  0.00000000E+00
  0.00000000E+00  0.00000000E+00  0.00000000E+00
  0.00000000E+00  0.00000000E+00  0.00000000E+00
  0.00000000E+00  0.00000000E+00  0.00000000E+00
  0.00000000E+00  0.00000000E+00  0.00000000E+00
  0.00000000E+00  0.00000000E+00  0.00000000E+00
  0.00000000E+00  0.00000000E+00  0.00000000E+00
  0.00000000E+00  0.00000000E+00  0.00000000E+00
  0.00000000E+00  0.00000000E+00  0.00000000E+00
  0.00000000E+00  0.00000000E+00  0.00000000E+00
  0.00000000E+00  0.00000000E+00  0.00000000E+00
  0.00000000E+00  0.00000000E+00  0.00000000E+00
  0.00000000E+00  0.00000000E+00  0.00000000E+00
  0.00000000E+00  0.00000000E+00  0.00000000E+00
  0.00000000E+00  0.00000000E+00  0.00000000E+00
  0.00000000E+00  0.00000000E+00  0.00000000E+00
  0.00000000E+00  0.00000000E+00  0.00000000E+00
  0.00000000E+00  0.00000000E+00  0.00000000E+00
  0.00000000E+00  0.00000000E+00  0.00000000E+00
  0.00000000E+00  0.00000000E+00  0.00000000E+00
  0.00000000E+00  0.00000000E+00  0.00000000E+00
  0.00000000E+00  0.00000000E+00  0.00000000E+00
  0.00000000E+00  0.00000000E+00  0.00000000E+00
  0.00000000E+00  0.00000000E+00  0.00000000E+00
  0.00000000E+00  0.00000000E+00  0.00000000E+00
  0.00000000E+00  0.00000000E+00  0.00000000E+00
