Iron diiron(III) oxide                  
   1.00000000000000     
     8.4578628079364346   -0.0206105956913645   -0.0256769737758482
    -0.0206282005860348    8.2785335052532929   -0.0037767821757214
    -0.0253149798931467   -0.0037452700374362    8.4660548008612793
   Zn   Fe   Ni   Co   Mn   O 
     2     3     3     8     8    32
Direct
  0.1229824538264807  0.6151533092618883  0.6292201448382641
  0.8735119727168367  0.8802298531950454  0.8732082649821740
  0.5029699567885575  0.7499105577794053  0.7502447669140979
  0.2527478085155340  0.0007092805947759  0.7500882441743042
  0.0001397324741199 -0.0020230723230826  0.5042406939855033
  0.7520552313801575  0.5014449441278765  0.7522672127155619
  0.6267874530641083  0.1296247605028817  0.6244817436059908
  0.7521399887551968  0.2484486792532319  0.0001402863064802
 -0.0077210934675447  0.5012297501955262 -0.0026096672239467
  0.2501388993006494  0.4996832567979950  0.2482524641246090
  0.3752425858329499  0.8783285834092879  0.3739807749487050
  0.3758763034101306  0.3831602226186122  0.8786266633902172
  0.1277030865926337  0.1189508619658685  0.1203590401755142
  0.6254255022139629  0.6216665887898838  0.1254771599734618
  0.5007791941794838  0.4985700805299231  0.5012588671159484
  0.8715592260742705  0.3803224164620271  0.3766606241271562
 -0.0003509688781356  0.2512994090653469  0.7559491348189675
  0.5013193885036209 -0.0019278965185604 -0.0025367103086329
  0.0025050531252442  0.7492537217718488  0.2500896864474738
  0.7502480764630992  0.7499453393402443  0.5077802754727250
  0.4964940550101092  0.2467451782340341  0.2440069615770037
  0.2487552006253642  0.2541310663932978  0.4984574299815053
  0.7478673023597230 -0.0011951700473402  0.2500038278653836
  0.2458240562306176  0.7498107482847461 -0.0055970311883092
  0.2705108941118183  0.2502192796005282  0.2461813030040158
  0.7456978690303807  0.7530274604724088  0.7332238410105457
  0.4929517562039269  0.9894060236927642  0.7607596280697534
  0.4985854099739544  0.0124811074978259  0.2298076961487706
  0.9829050562656425  0.7560712610236553  0.5057359452217394
  0.0102664324307343  0.2442782366414669  0.5204648116804315
  0.7690966005001241  0.4984961164677369  0.9935024875916451
  0.2310327772874464  0.5206007275282155  0.0007915523115951
 -0.0000011128426442  0.5169073439585868  0.2356638675201099
  0.9970931963442126  0.4809668471065285  0.7611992950030060
  0.5069591093135889  0.2363769058791360  0.0131059803055023
  0.4805714266902630  0.7576073806993168  0.9892775147277451
  0.2384301102149068  0.0121727661395962  0.5126932132897103
  0.7605285758176252  0.9887856331339316  0.4902946467873794
  0.2527958960666732  0.7570155439781331  0.7629083472166585
  0.7321264346241108  0.2334190242151901  0.2470311966333727
  0.4979658117738169  0.4770613368773193  0.2543609728507653
  0.5086860048957231  0.5189899866058822  0.7448190838064662
 -0.0035188970079454  0.2567188189491817  0.9832517487792034
  0.0173855142909879  0.7488094170014620 -0.0037930264252886
  0.0087266499239695  0.0156823411879684  0.7448158668534840
  0.0011063439258364  0.9847267269317755  0.2662762944197369
  0.5209050475410753  0.7541437805608139  0.5119637385096519
  0.4824631133002201  0.2418699873251508  0.4751917967447903
  0.7734360533908514  0.2501632675388165  0.7590360135369064
  0.2392279136803526  0.7524210373821815  0.2252697610216511
  0.2530088307389210  0.4860525212801540  0.4955417094546580
  0.7448801723031131  0.5213211152588787  0.5098429275190166
  0.7347244819790651 -0.0060954597517805  0.0145646807788420
  0.2654326745981509  0.9838812368625902  0.9865210370444703
  0.7594366329678716  0.7619834947260160  0.2717642928845130
  0.2315827545680577  0.2409662635438074  0.7538809168789951
 
  0.00000000E+00  0.00000000E+00  0.00000000E+00
  0.00000000E+00  0.00000000E+00  0.00000000E+00
  0.00000000E+00  0.00000000E+00  0.00000000E+00
  0.00000000E+00  0.00000000E+00  0.00000000E+00
  0.00000000E+00  0.00000000E+00  0.00000000E+00
  0.00000000E+00  0.00000000E+00  0.00000000E+00
  0.00000000E+00  0.00000000E+00  0.00000000E+00
  0.00000000E+00  0.00000000E+00  0.00000000E+00
  0.00000000E+00  0.00000000E+00  0.00000000E+00
  0.00000000E+00  0.00000000E+00  0.00000000E+00
  0.00000000E+00  0.00000000E+00  0.00000000E+00
  0.00000000E+00  0.00000000E+00  0.00000000E+00
  0.00000000E+00  0.00000000E+00  0.00000000E+00
  0.00000000E+00  0.00000000E+00  0.00000000E+00
  0.00000000E+00  0.00000000E+00  0.00000000E+00
  0.00000000E+00  0.00000000E+00  0.00000000E+00
  0.00000000E+00  0.00000000E+00  0.00000000E+00
  0.00000000E+00  0.00000000E+00  0.00000000E+00
  0.00000000E+00  0.00000000E+00  0.00000000E+00
  0.00000000E+00  0.00000000E+00  0.00000000E+00
  0.00000000E+00  0.00000000E+00  0.00000000E+00
  0.00000000E+00  0.00000000E+00  0.00000000E+00
  0.00000000E+00  0.00000000E+00  0.00000000E+00
  0.00000000E+00  0.00000000E+00  0.00000000E+00
  0.00000000E+00  0.00000000E+00  0.00000000E+00
  0.00000000E+00  0.00000000E+00  0.00000000E+00
  0.00000000E+00  0.00000000E+00  0.00000000E+00
  0.00000000E+00  0.00000000E+00  0.00000000E+00
  0.00000000E+00  0.00000000E+00  0.00000000E+00
  0.00000000E+00  0.00000000E+00  0.00000000E+00
  0.00000000E+00  0.00000000E+00  0.00000000E+00
  0.00000000E+00  0.00000000E+00  0.00000000E+00
  0.00000000E+00  0.00000000E+00  0.00000000E+00
  0.00000000E+00  0.00000000E+00  0.00000000E+00
  0.00000000E+00  0.00000000E+00  0.00000000E+00
  0.00000000E+00  0.00000000E+00  0.00000000E+00
  0.00000000E+00  0.00000000E+00  0.00000000E+00
  0.00000000E+00  0.00000000E+00  0.00000000E+00
  0.00000000E+00  0.00000000E+00  0.00000000E+00
  0.00000000E+00  0.00000000E+00  0.00000000E+00
  0.00000000E+00  0.00000000E+00  0.00000000E+00
  0.00000000E+00  0.00000000E+00  0.00000000E+00
  0.00000000E+00  0.00000000E+00  0.00000000E+00
  0.00000000E+00  0.00000000E+00  0.00000000E+00
  0.00000000E+00  0.00000000E+00  0.00000000E+00
  0.00000000E+00  0.00000000E+00  0.00000000E+00
  0.00000000E+00  0.00000000E+00  0.00000000E+00
  0.00000000E+00  0.00000000E+00  0.00000000E+00
  0.00000000E+00  0.00000000E+00  0.00000000E+00
  0.00000000E+00  0.00000000E+00  0.00000000E+00
  0.00000000E+00  0.00000000E+00  0.00000000E+00
  0.00000000E+00  0.00000000E+00  0.00000000E+00
  0.00000000E+00  0.00000000E+00  0.00000000E+00
  0.00000000E+00  0.00000000E+00  0.00000000E+00
  0.00000000E+00  0.00000000E+00  0.00000000E+00
  0.00000000E+00  0.00000000E+00  0.00000000E+00
