Iron diiron(III) oxide                  
   1.00000000000000     
     8.4372540879396514    0.0183565535669304   -0.0030779771181124
     0.0184815635638627    8.4094576482903491   -0.0098224042925571
    -0.0031077662918902   -0.0098050204295690    8.4317192284417484
   Zn   Fe   Ni   Co   Mn   O 
     2     3     3     8     8    32
Direct
  0.1286081532343307  0.6209189428100830  0.6195151147414404
  0.6277334035843346  0.1230118215549918  0.6192706548828719
  0.0048953229330177  0.5007651519454627  0.0029004794584092
  0.3734825262551771  0.8784462078256020  0.3782849915149136
  0.0027894445573492  0.7548718328975538  0.2573379162282408
  0.7468134181925231  0.0019333039438820  0.2518770532460051
  0.4987345840327095  0.4983566631617694  0.5003271543670417
  0.7472083467905225  0.2484912149545077 -0.0008780686950443
  0.7518996343332935  0.7538259368160091  0.5002850079200324
  0.3739909831418309  0.3757335180603711  0.8759302308590318
  0.2541456068260144  0.4978686834912351  0.2521887166536591
 -0.0029201277384314 -0.0012148605306049  0.4960671817485522
  0.1272054952320717  0.1244965268621848  0.1231579372192367
  0.2487432976795334 -0.0045236193323291  0.7495613049239982
  0.2500712523132712  0.7483279227988959  0.0001869211721835
  0.4957422078408322  0.2512685187766791  0.2519819334700065
  0.0011632540502263  0.2523513032544022  0.7482646066690707
  0.8698222944345776  0.3705927792873172  0.3761432099611648
  0.8721277898722334  0.8798492029685551  0.8775645247697067
  0.6295292844574211  0.6268016166738367  0.1248249885241095
  0.7490561198987697  0.4991857545947019  0.7469036137067694
  0.4977385190852869  0.7502139898797348  0.7474435743906861
  0.2541461309305057  0.2523787316228837  0.5031281151899980
  0.4976949566558269  0.0019435434830812 -0.0010039592753872
  0.2625161396861123  0.2487901847963642  0.2730349833535130
  0.7316318129263327  0.7312418176794502  0.7453727838526307
  0.5063951570484431  0.9841155624470466  0.7656734496626604
  0.4959419734181107  0.0049125734875379  0.2315259472402888
  0.9966777411679282  0.7515541152153667  0.4934382540923648
  0.0231577761824388  0.2492969889499807  0.5174808047724223
  0.7614143263562201  0.4897062770004643  0.9764304133917443
  0.2392232353550280  0.5034721729160850  0.0091792090032407
  0.0005643318280508  0.5123642701514876  0.2360622085213443
  0.9837943445377879  0.4887213829632627  0.7538401913677700
  0.5010600599654674  0.2305817479659840  0.0086789508771294
  0.4969631806967966  0.7679327362431303  0.9793328766723917
  0.2515162253426974  0.0192661988605839  0.5069015403787855
  0.7527363147214993  0.9961150149673824  0.4849787197578746
  0.2714769519679345  0.7476543364620624  0.7494085537816849
  0.7296626282261178  0.2294517283226425  0.2424697187395805
  0.5011302517136171  0.4790207415063281  0.2596642321877663
  0.5171365730048174  0.5166344661791535  0.7484551064804508
  0.9945042618637224  0.2590957772074317  0.9782002595854827
  0.0082706144654558  0.7379728162289941  0.0110038431887074
  0.0021134866051402  0.0263742468700874  0.7436565828121811
  0.9909764061701596  0.9914833564054226  0.2518199152905621
  0.5010740847533717  0.7489256162927090  0.5165635994514802
  0.4833367937891345  0.2513300128306220  0.4966027546136999
  0.7657140142717660  0.2652865713589169  0.7478784835184126
  0.2450390155153685  0.7472048452145136  0.2526457234119419
  0.2575474385870358  0.4781165739414407  0.4978630478239533
  0.7391225623809926  0.5089270902820079  0.5211347904290268
  0.7258576947215609  0.0077168844733904  0.0172931563391758
  0.2709078680066163  0.9968146045377321  0.9894827365654840
  0.7597617487982626  0.7733077568457648  0.2583472155572145
  0.2323530873327879  0.2507168435958473  0.7343167436323355
 
  0.00000000E+00  0.00000000E+00  0.00000000E+00
  0.00000000E+00  0.00000000E+00  0.00000000E+00
  0.00000000E+00  0.00000000E+00  0.00000000E+00
  0.00000000E+00  0.00000000E+00  0.00000000E+00
  0.00000000E+00  0.00000000E+00  0.00000000E+00
  0.00000000E+00  0.00000000E+00  0.00000000E+00
  0.00000000E+00  0.00000000E+00  0.00000000E+00
  0.00000000E+00  0.00000000E+00  0.00000000E+00
  0.00000000E+00  0.00000000E+00  0.00000000E+00
  0.00000000E+00  0.00000000E+00  0.00000000E+00
  0.00000000E+00  0.00000000E+00  0.00000000E+00
  0.00000000E+00  0.00000000E+00  0.00000000E+00
  0.00000000E+00  0.00000000E+00  0.00000000E+00
  0.00000000E+00  0.00000000E+00  0.00000000E+00
  0.00000000E+00  0.00000000E+00  0.00000000E+00
  0.00000000E+00  0.00000000E+00  0.00000000E+00
  0.00000000E+00  0.00000000E+00  0.00000000E+00
  0.00000000E+00  0.00000000E+00  0.00000000E+00
  0.00000000E+00  0.00000000E+00  0.00000000E+00
  0.00000000E+00  0.00000000E+00  0.00000000E+00
  0.00000000E+00  0.00000000E+00  0.00000000E+00
  0.00000000E+00  0.00000000E+00  0.00000000E+00
  0.00000000E+00  0.00000000E+00  0.00000000E+00
  0.00000000E+00  0.00000000E+00  0.00000000E+00
  0.00000000E+00  0.00000000E+00  0.00000000E+00
  0.00000000E+00  0.00000000E+00  0.00000000E+00
  0.00000000E+00  0.00000000E+00  0.00000000E+00
  0.00000000E+00  0.00000000E+00  0.00000000E+00
  0.00000000E+00  0.00000000E+00  0.00000000E+00
  0.00000000E+00  0.00000000E+00  0.00000000E+00
  0.00000000E+00  0.00000000E+00  0.00000000E+00
  0.00000000E+00  0.00000000E+00  0.00000000E+00
  0.00000000E+00  0.00000000E+00  0.00000000E+00
  0.00000000E+00  0.00000000E+00  0.00000000E+00
  0.00000000E+00  0.00000000E+00  0.00000000E+00
  0.00000000E+00  0.00000000E+00  0.00000000E+00
  0.00000000E+00  0.00000000E+00  0.00000000E+00
  0.00000000E+00  0.00000000E+00  0.00000000E+00
  0.00000000E+00  0.00000000E+00  0.00000000E+00
  0.00000000E+00  0.00000000E+00  0.00000000E+00
  0.00000000E+00  0.00000000E+00  0.00000000E+00
  0.00000000E+00  0.00000000E+00  0.00000000E+00
  0.00000000E+00  0.00000000E+00  0.00000000E+00
  0.00000000E+00  0.00000000E+00  0.00000000E+00
  0.00000000E+00  0.00000000E+00  0.00000000E+00
  0.00000000E+00  0.00000000E+00  0.00000000E+00
  0.00000000E+00  0.00000000E+00  0.00000000E+00
  0.00000000E+00  0.00000000E+00  0.00000000E+00
  0.00000000E+00  0.00000000E+00  0.00000000E+00
  0.00000000E+00  0.00000000E+00  0.00000000E+00
  0.00000000E+00  0.00000000E+00  0.00000000E+00
  0.00000000E+00  0.00000000E+00  0.00000000E+00
  0.00000000E+00  0.00000000E+00  0.00000000E+00
  0.00000000E+00  0.00000000E+00  0.00000000E+00
  0.00000000E+00  0.00000000E+00  0.00000000E+00
  0.00000000E+00  0.00000000E+00  0.00000000E+00
