Iron diiron(III) oxide                  
   1.00000000000000     
     8.4621805233161460    0.0171965753989020   -0.0073500288369133
     0.0172224651530252    8.3823063613276201   -0.0041077451015615
    -0.0073164945547692   -0.0040762121168221    8.4039193991671652
   Zn   Fe   Ni   Co   Mn   O 
     2     3     3     8     8    32
Direct
  0.3797607866581797  0.3773627296330894  0.8761192360789860
  0.1222582784372637  0.1234593763617218  0.1302081420620189
  0.7419143798778148  0.5021082597926402  0.7516219499718779
  0.5020442599480882  0.2553635284843573  0.2458520753594920
  0.7547902643502598  0.0006133599631082  0.2438615510737625
  0.4995028036113638  0.7467370708321495  0.7510951544359309
  0.5009160578065319  0.4989327680689903  0.5009049210835798
  0.7497438487816891  0.2492250265626010  0.0031279593349122
 -0.0010661589060917 -0.0017101949687295  0.4955041839234107
 -0.0008527772299685  0.7494705240093883  0.2494757279720266
  0.4996401673500862  0.0022938564971321 -0.0012758391148447
  0.8758253977593606  0.8761531165062378  0.8723378850840453
  0.2523976334698128  0.4999025558943849  0.2514920574536556
  0.6219909540507746  0.6257149723364389  0.1257874989625272
  0.8778052464623778  0.3786379154319761  0.3719057110695170
  0.1221976648574074  0.6236630516862025  0.6249068989276262
  0.2485751790593989  0.7495073925082996 -0.0028950134626001
  0.7498676152353353  0.7476973416998555  0.4997021177090307
  0.0038712325849165  0.2529238837082904  0.7535431275329856
  0.6232308555820870  0.1224839253294175  0.6312897379961149
  0.0032584613220410  0.4994507826321706 -0.0012934256792247
  0.2496891944132122  0.2523122436742676  0.5007907340629545
  0.3803073643492123  0.8757900317082146  0.3709371567376029
  0.2475123271656043  0.0016755722639821  0.7554017675760301
  0.2553203799733974  0.2442083682909622  0.2730850168465701
  0.7454943723102015  0.7417682620104087  0.7329669880698806
  0.4742072461043090  0.9950747062076246  0.7699232131758789
  0.5130025520972914  0.0125753530003415  0.2262019572414257
  0.9802147479528247  0.7545807926946909  0.4989124457977359
  0.0173387752426965  0.2510082691516701  0.5220573834991608
  0.7744346834675552  0.4987535062700806  0.9907978410607075
  0.2360366459543355  0.5171765608938099 -0.0075979560510995
  0.0097151376617921  0.5005463165683495  0.2233102523211456
  0.9947998187540461  0.4828067400337239  0.7660348992262819
  0.5005084286955958  0.2389774916983042  0.0069705030238566
  0.4760495836845120  0.7621776362239707  0.9944595229793944
  0.2476263566663746  0.0171323320363406  0.5249421277953613
  0.7514434969665431  0.9781195387207631  0.4890954844362376
  0.2505398393366239  0.7711325939208844  0.7606553725347504
  0.7386884699045497  0.2398994134480711  0.2480195127477823
  0.4912705400552780  0.4872243616107969  0.2551528802547131
  0.5125719083859670  0.5011253046648766  0.7487254503780011
  0.0040041236042479  0.2661182878038490  0.9853683351013931
  0.0174693331277657  0.7298596477147136 -0.0067798609675823
  0.0169578141874690  0.0220244395405729  0.7492242277949132
  0.9884129698251124  0.9973398588296957  0.2527676954865707
  0.5211022765846838  0.7413557752025448  0.5112183147421340
  0.4761739962971716  0.2522278888164395  0.4900641440787442
  0.7787400348350666  0.2599842312729327  0.7566919038958504
  0.2416914892437539  0.7466479995656831  0.2219332433762598
  0.2557143289076646  0.4800100757215027  0.5000653711676469
  0.7481117404867877  0.5154057449262727  0.5118449825357205
  0.7401028525476042  0.0040329781236974  0.0062851884280424
  0.2462170167132576  0.9844100140000164  0.9866949207406100
  0.7522172310020314  0.7574778563453617  0.2696064775077912
  0.2386407724267299  0.2390485640748624  0.7409008446227037
 
  0.00000000E+00  0.00000000E+00  0.00000000E+00
  0.00000000E+00  0.00000000E+00  0.00000000E+00
  0.00000000E+00  0.00000000E+00  0.00000000E+00
  0.00000000E+00  0.00000000E+00  0.00000000E+00
  0.00000000E+00  0.00000000E+00  0.00000000E+00
  0.00000000E+00  0.00000000E+00  0.00000000E+00
  0.00000000E+00  0.00000000E+00  0.00000000E+00
  0.00000000E+00  0.00000000E+00  0.00000000E+00
  0.00000000E+00  0.00000000E+00  0.00000000E+00
  0.00000000E+00  0.00000000E+00  0.00000000E+00
  0.00000000E+00  0.00000000E+00  0.00000000E+00
  0.00000000E+00  0.00000000E+00  0.00000000E+00
  0.00000000E+00  0.00000000E+00  0.00000000E+00
  0.00000000E+00  0.00000000E+00  0.00000000E+00
  0.00000000E+00  0.00000000E+00  0.00000000E+00
  0.00000000E+00  0.00000000E+00  0.00000000E+00
  0.00000000E+00  0.00000000E+00  0.00000000E+00
  0.00000000E+00  0.00000000E+00  0.00000000E+00
  0.00000000E+00  0.00000000E+00  0.00000000E+00
  0.00000000E+00  0.00000000E+00  0.00000000E+00
  0.00000000E+00  0.00000000E+00  0.00000000E+00
  0.00000000E+00  0.00000000E+00  0.00000000E+00
  0.00000000E+00  0.00000000E+00  0.00000000E+00
  0.00000000E+00  0.00000000E+00  0.00000000E+00
  0.00000000E+00  0.00000000E+00  0.00000000E+00
  0.00000000E+00  0.00000000E+00  0.00000000E+00
  0.00000000E+00  0.00000000E+00  0.00000000E+00
  0.00000000E+00  0.00000000E+00  0.00000000E+00
  0.00000000E+00  0.00000000E+00  0.00000000E+00
  0.00000000E+00  0.00000000E+00  0.00000000E+00
  0.00000000E+00  0.00000000E+00  0.00000000E+00
  0.00000000E+00  0.00000000E+00  0.00000000E+00
  0.00000000E+00  0.00000000E+00  0.00000000E+00
  0.00000000E+00  0.00000000E+00  0.00000000E+00
  0.00000000E+00  0.00000000E+00  0.00000000E+00
  0.00000000E+00  0.00000000E+00  0.00000000E+00
  0.00000000E+00  0.00000000E+00  0.00000000E+00
  0.00000000E+00  0.00000000E+00  0.00000000E+00
  0.00000000E+00  0.00000000E+00  0.00000000E+00
  0.00000000E+00  0.00000000E+00  0.00000000E+00
  0.00000000E+00  0.00000000E+00  0.00000000E+00
  0.00000000E+00  0.00000000E+00  0.00000000E+00
  0.00000000E+00  0.00000000E+00  0.00000000E+00
  0.00000000E+00  0.00000000E+00  0.00000000E+00
  0.00000000E+00  0.00000000E+00  0.00000000E+00
  0.00000000E+00  0.00000000E+00  0.00000000E+00
  0.00000000E+00  0.00000000E+00  0.00000000E+00
  0.00000000E+00  0.00000000E+00  0.00000000E+00
  0.00000000E+00  0.00000000E+00  0.00000000E+00
  0.00000000E+00  0.00000000E+00  0.00000000E+00
  0.00000000E+00  0.00000000E+00  0.00000000E+00
  0.00000000E+00  0.00000000E+00  0.00000000E+00
  0.00000000E+00  0.00000000E+00  0.00000000E+00
  0.00000000E+00  0.00000000E+00  0.00000000E+00
  0.00000000E+00  0.00000000E+00  0.00000000E+00
  0.00000000E+00  0.00000000E+00  0.00000000E+00
