Iron diiron(III) oxide                  
   1.00000000000000     
     8.4515437940522240    0.0069374741958282    0.0313389459353257
     0.0067660715666572    8.3694172002134213    0.0145379656139081
     0.0314004438673673    0.0145139900724050    8.3621052119793458
   Zn   Fe   Ni   Co   Mn   O 
     2     3     3     8     8    32
Direct
  0.6261470779694578  0.1197228985117184  0.6266871548561989
  0.1273029764426001  0.6232084792723547  0.6237535917998692
  0.7536476662434051  0.4976556507516915  0.7452762317442843
  0.6201885254331853  0.6180877161449080  0.1228595651839366
  0.3750080478109744  0.8775122448184012  0.3806432599593202
  0.3762533611681488  0.3715257166599544  0.8784250223259947
  0.2484658092825133 -0.0004829355202515  0.7500662228488374
  0.2453977227147939  0.2498222341881669  0.4983725746233256
  0.0059532906746324  0.5016626739736869 -0.0065982906726722
  0.4948625226887614  0.4915823629305752  0.5085802331360633
  0.8807724076761478  0.3797031928382886  0.3750503221361513
  0.4969290000943883  0.0045139680375890 -0.0028680648476460
  0.8761400080842378  0.8784970457921314  0.8754576518607980
  0.1227632162588875  0.1236179284444856  0.1226339708467585
  0.7470482195660200 -0.0009161294767411  0.2498985117531459
  0.0071266228412073  0.2489316924988666  0.7455432539005096
  0.2536307033947637  0.7514361259121540 -0.0010634690584235
  0.7462763055931123  0.7504109391866464  0.5005321774956965
  0.7550263904193095  0.2485179025068932  0.0018019319313773
  0.5028433746024155  0.2480118752695540  0.2560418233398863
 -0.0002335850350990  0.7531258671730047  0.2498238234635733
 -0.0046430390128996 -0.0029380199046541  0.5010662528856843
  0.4981061067462940  0.7511684276535587  0.7512150780272788
  0.2503746066235010  0.5019281082515448  0.2507818898647328
  0.2479074075997913  0.2753426559899661  0.2518393778132036
  0.7319128670437661  0.7434576550866165  0.7407017140049041
  0.4924778719056142  0.9809080018096070  0.7504770925846428
  0.5019685943561228  0.0104882801990073  0.2515329169603850
  0.9864094854235472  0.7619605037966574  0.4907311865794330
 -0.0022004304080947  0.2264494831176597  0.5084466648950485
  0.7574855250934249  0.4872805732312807  0.9936735226242437
  0.2503244661520359  0.5153869172354086  0.0171232083798157
  0.0233868312011527  0.5210844128376966  0.2472387211529376
  0.9894680306363335  0.4917759217377460  0.7468095114209199
  0.5241521826784660  0.2554513440924051  0.0212341490956525
  0.4918888243973704  0.7479321990426890  0.9842544641028761
  0.2262423208107464  0.0001123293325370  0.4996281225816157
  0.7660594317090974  0.9834687250380282  0.4989861389834303
  0.2681641453252271  0.7483417650961361  0.7595384731502433
  0.7556705834060077  0.2491151536045238  0.2297551271277514
  0.4822363500542710  0.4906558617254705  0.2526298035427220
  0.5119343500180100  0.5191980203071597  0.7536658135419763
  0.9815349989361524  0.2514423152501130  0.9842513843517703
  0.0190098469408506  0.7530074297254088  0.0151020091127621
  0.0049712049059761  0.0068507008396673  0.7287255639200595
  0.9924298754657233  0.9849889957518100  0.2677029887179700
  0.5099169192750531  0.7527078290100088  0.5185618417830082
  0.4951606948615495  0.2461480911403409  0.4864765055983477
  0.7561793694592922  0.2574369769593832  0.7635393303830698
  0.2619435638847689  0.7386238123593136  0.2401573777925235
  0.2527966525312434  0.4980806051536555  0.4800666414801630
  0.7430931878417830  0.5183201312671261  0.5079962220901643
  0.7437050703217276  0.0220874710117728  0.0046541764138034
  0.2559187895249079  0.9811950211361444  0.9941907687249926
  0.7411444336471755  0.7463269735934959  0.2617049814819082
  0.2313192167201501  0.2480678776066384  0.7446234802029719
 
  0.00000000E+00  0.00000000E+00  0.00000000E+00
  0.00000000E+00  0.00000000E+00  0.00000000E+00
  0.00000000E+00  0.00000000E+00  0.00000000E+00
  0.00000000E+00  0.00000000E+00  0.00000000E+00
  0.00000000E+00  0.00000000E+00  0.00000000E+00
  0.00000000E+00  0.00000000E+00  0.00000000E+00
  0.00000000E+00  0.00000000E+00  0.00000000E+00
  0.00000000E+00  0.00000000E+00  0.00000000E+00
  0.00000000E+00  0.00000000E+00  0.00000000E+00
  0.00000000E+00  0.00000000E+00  0.00000000E+00
  0.00000000E+00  0.00000000E+00  0.00000000E+00
  0.00000000E+00  0.00000000E+00  0.00000000E+00
  0.00000000E+00  0.00000000E+00  0.00000000E+00
  0.00000000E+00  0.00000000E+00  0.00000000E+00
  0.00000000E+00  0.00000000E+00  0.00000000E+00
  0.00000000E+00  0.00000000E+00  0.00000000E+00
  0.00000000E+00  0.00000000E+00  0.00000000E+00
  0.00000000E+00  0.00000000E+00  0.00000000E+00
  0.00000000E+00  0.00000000E+00  0.00000000E+00
  0.00000000E+00  0.00000000E+00  0.00000000E+00
  0.00000000E+00  0.00000000E+00  0.00000000E+00
  0.00000000E+00  0.00000000E+00  0.00000000E+00
  0.00000000E+00  0.00000000E+00  0.00000000E+00
  0.00000000E+00  0.00000000E+00  0.00000000E+00
  0.00000000E+00  0.00000000E+00  0.00000000E+00
  0.00000000E+00  0.00000000E+00  0.00000000E+00
  0.00000000E+00  0.00000000E+00  0.00000000E+00
  0.00000000E+00  0.00000000E+00  0.00000000E+00
  0.00000000E+00  0.00000000E+00  0.00000000E+00
  0.00000000E+00  0.00000000E+00  0.00000000E+00
  0.00000000E+00  0.00000000E+00  0.00000000E+00
  0.00000000E+00  0.00000000E+00  0.00000000E+00
  0.00000000E+00  0.00000000E+00  0.00000000E+00
  0.00000000E+00  0.00000000E+00  0.00000000E+00
  0.00000000E+00  0.00000000E+00  0.00000000E+00
  0.00000000E+00  0.00000000E+00  0.00000000E+00
  0.00000000E+00  0.00000000E+00  0.00000000E+00
  0.00000000E+00  0.00000000E+00  0.00000000E+00
  0.00000000E+00  0.00000000E+00  0.00000000E+00
  0.00000000E+00  0.00000000E+00  0.00000000E+00
  0.00000000E+00  0.00000000E+00  0.00000000E+00
  0.00000000E+00  0.00000000E+00  0.00000000E+00
  0.00000000E+00  0.00000000E+00  0.00000000E+00
  0.00000000E+00  0.00000000E+00  0.00000000E+00
  0.00000000E+00  0.00000000E+00  0.00000000E+00
  0.00000000E+00  0.00000000E+00  0.00000000E+00
  0.00000000E+00  0.00000000E+00  0.00000000E+00
  0.00000000E+00  0.00000000E+00  0.00000000E+00
  0.00000000E+00  0.00000000E+00  0.00000000E+00
  0.00000000E+00  0.00000000E+00  0.00000000E+00
  0.00000000E+00  0.00000000E+00  0.00000000E+00
  0.00000000E+00  0.00000000E+00  0.00000000E+00
  0.00000000E+00  0.00000000E+00  0.00000000E+00
  0.00000000E+00  0.00000000E+00  0.00000000E+00
  0.00000000E+00  0.00000000E+00  0.00000000E+00
  0.00000000E+00  0.00000000E+00  0.00000000E+00
