Iron diiron(III) oxide                  
   1.00000000000000     
     8.3348079656213727   -0.0099542654995626   -0.0069459154055919
    -0.0098006982612627    8.4962041314440082   -0.0011381214663424
    -0.0069523481523956   -0.0011633402303268    8.3725125650853993
   Zn   Fe   Ni   Co   Mn   O 
     2     3     3     8     8    32
Direct
  0.6241821544237763  0.6321530712747236  0.1244110847599482
  0.6255096072866406  0.1356355620385039  0.6258088702104833
  0.3764658654327930  0.8731633094357817  0.3748161622270981
  0.3746198143522134  0.3694219819516673  0.8750036927640436
  0.2505862520584720  0.7557619335742582  0.0024755162909038
  0.7500451169504666  0.2473008014627196 -0.0022092445232437
  0.0001597393758712  0.7510155596383196  0.2496284119784993
 -0.0010284692678418  0.2484704487633495  0.7519790903204638
  0.5009208333115122  0.2523926985049373  0.2461412050456152
  0.1200661475197315  0.1309359303910011  0.1277380221301226
  0.7506740038278882  0.7482552310552915  0.4976427082456354
  0.5000559939220756  0.4974966431303912  0.4968144919055575
  0.1232497830347323  0.6294614069207409  0.6259987194933401
  0.8727533550925881  0.8703025660836059  0.8730357371326155
  0.2526201869759436  0.0034706403419939  0.7549392353430142
  0.4981211257743445  0.0028763237615783 -0.0089333361623557
  0.8751200539318057  0.3710125290966311  0.3724995533143924
 -0.0005734287264201  0.5000618523460686 -0.0002912807954401
  0.2537300517516765  0.5001593552736622  0.2503379791489744
  0.7495026574694850 -0.0040718338547623  0.2477428419400298
 -0.0019405638253801 -0.0005087582432252  0.5012773179077411
  0.7497911498338540  0.4952511835737599  0.7528597365227754
  0.4998299169129616  0.7511935251376703  0.7527089670433882
  0.2507788117434900  0.2519312256799455  0.4971263502415212
  0.2493692355627286  0.2669806407624849  0.2679238212330337
  0.7339858942621387  0.7257081842900930  0.7482869303984523
  0.5048347318160493  0.0030480235577491  0.7651230205591938
  0.5153453826463379 -0.0077651484757469  0.2391108899087361
  0.9975951770697354  0.7742300764883330  0.4946429832050251
  0.0189641644679409  0.2286090218429231  0.5063058135140311
  0.7665049494130999  0.4967821355265940  0.9911979461338292
  0.2380683247144147  0.5048902695142831  0.0069030428880193
  0.0169734744492449  0.5089083014060158  0.2295404160363571
  0.9838802053928188  0.4972410291217226  0.7663937916900894
  0.4993837607887361  0.2364708131168992  0.0030264570373075
  0.4912965326925107  0.7597962161885783  0.9873080776026703
  0.2368049611690001  0.0157768185314834  0.4933674926696632
  0.7650452324989636  0.0022750887206063  0.4856291501213833
  0.2658637817545224  0.7584884098313104  0.7611697027563648
  0.7428058428197197  0.2211244706712367  0.2402021241358951
  0.4852471131793922  0.5006055743440644  0.2500658301227465
  0.5174317074598476  0.4937405650573868  0.7527204889442684
  0.9963220301514143  0.2739414677592784  0.9934372436278286
  0.0126712602742407  0.7294766262089510  0.0025677143009526
  0.0041824424127446  0.0050316847462896  0.7299409730114870
  0.9827464645799259  0.9949523246124750  0.2653486536389297
  0.4962329603161694  0.7472406155761577  0.5168281774152927
  0.4798711448265842  0.2516668911759165  0.4931292583233248
  0.7571693379031835  0.2701169904606799  0.7543046716197557
  0.2503602575415639  0.7361963242587505  0.2454635079481388
  0.2433493035587999  0.4792680318261872  0.4874180511216583
  0.7475476392151656  0.5045937593192510  0.5252417535437958
  0.7428498273180233  0.0035114421752873  0.0172998182455566
  0.2599153813020139  0.9891952326654516  0.0058426835838006
  0.7553969804457844  0.7675820534014750  0.2529282156242088
  0.2467443388345062  0.2471728779792180  0.7317794665530802
 
  0.00000000E+00  0.00000000E+00  0.00000000E+00
  0.00000000E+00  0.00000000E+00  0.00000000E+00
  0.00000000E+00  0.00000000E+00  0.00000000E+00
  0.00000000E+00  0.00000000E+00  0.00000000E+00
  0.00000000E+00  0.00000000E+00  0.00000000E+00
  0.00000000E+00  0.00000000E+00  0.00000000E+00
  0.00000000E+00  0.00000000E+00  0.00000000E+00
  0.00000000E+00  0.00000000E+00  0.00000000E+00
  0.00000000E+00  0.00000000E+00  0.00000000E+00
  0.00000000E+00  0.00000000E+00  0.00000000E+00
  0.00000000E+00  0.00000000E+00  0.00000000E+00
  0.00000000E+00  0.00000000E+00  0.00000000E+00
  0.00000000E+00  0.00000000E+00  0.00000000E+00
  0.00000000E+00  0.00000000E+00  0.00000000E+00
  0.00000000E+00  0.00000000E+00  0.00000000E+00
  0.00000000E+00  0.00000000E+00  0.00000000E+00
  0.00000000E+00  0.00000000E+00  0.00000000E+00
  0.00000000E+00  0.00000000E+00  0.00000000E+00
  0.00000000E+00  0.00000000E+00  0.00000000E+00
  0.00000000E+00  0.00000000E+00  0.00000000E+00
  0.00000000E+00  0.00000000E+00  0.00000000E+00
  0.00000000E+00  0.00000000E+00  0.00000000E+00
  0.00000000E+00  0.00000000E+00  0.00000000E+00
  0.00000000E+00  0.00000000E+00  0.00000000E+00
  0.00000000E+00  0.00000000E+00  0.00000000E+00
  0.00000000E+00  0.00000000E+00  0.00000000E+00
  0.00000000E+00  0.00000000E+00  0.00000000E+00
  0.00000000E+00  0.00000000E+00  0.00000000E+00
  0.00000000E+00  0.00000000E+00  0.00000000E+00
  0.00000000E+00  0.00000000E+00  0.00000000E+00
  0.00000000E+00  0.00000000E+00  0.00000000E+00
  0.00000000E+00  0.00000000E+00  0.00000000E+00
  0.00000000E+00  0.00000000E+00  0.00000000E+00
  0.00000000E+00  0.00000000E+00  0.00000000E+00
  0.00000000E+00  0.00000000E+00  0.00000000E+00
  0.00000000E+00  0.00000000E+00  0.00000000E+00
  0.00000000E+00  0.00000000E+00  0.00000000E+00
  0.00000000E+00  0.00000000E+00  0.00000000E+00
  0.00000000E+00  0.00000000E+00  0.00000000E+00
  0.00000000E+00  0.00000000E+00  0.00000000E+00
  0.00000000E+00  0.00000000E+00  0.00000000E+00
  0.00000000E+00  0.00000000E+00  0.00000000E+00
  0.00000000E+00  0.00000000E+00  0.00000000E+00
  0.00000000E+00  0.00000000E+00  0.00000000E+00
  0.00000000E+00  0.00000000E+00  0.00000000E+00
  0.00000000E+00  0.00000000E+00  0.00000000E+00
  0.00000000E+00  0.00000000E+00  0.00000000E+00
  0.00000000E+00  0.00000000E+00  0.00000000E+00
  0.00000000E+00  0.00000000E+00  0.00000000E+00
  0.00000000E+00  0.00000000E+00  0.00000000E+00
  0.00000000E+00  0.00000000E+00  0.00000000E+00
  0.00000000E+00  0.00000000E+00  0.00000000E+00
  0.00000000E+00  0.00000000E+00  0.00000000E+00
  0.00000000E+00  0.00000000E+00  0.00000000E+00
  0.00000000E+00  0.00000000E+00  0.00000000E+00
  0.00000000E+00  0.00000000E+00  0.00000000E+00
