Iron diiron(III) oxide                  
   1.00000000000000     
     8.4148495370556198   -0.0046615045119950   -0.0081832797227772
    -0.0046602998641263    8.3767523110054274   -0.0162879495160603
    -0.0081776446400372   -0.0162439348916123    8.4194636746183491
   Zn   Fe   Ni   Co   Mn   O 
     2     3     3     8     8    32
Direct
  0.8745697239736234  0.8745482994491383  0.8723860880719398
  0.8730426262096233  0.3804887073107173  0.3727632434743923
  0.7480527809124140  0.5003337326631133  0.7504386012202403
  0.4940903057685808  0.5002146268170036  0.5006455751810955
  0.7557540198222120  0.2489612702100904  0.0034801581217682
  0.4991021324859868  0.7495975739939007  0.7468602970902936
  0.0032035828220054  0.7477268580057258  0.2511450814385139
  0.3697940165355474  0.3786077444807986  0.8778481837932441
  0.1271966139735256  0.1224963868680202  0.1300564620488818
  0.3729616264913281  0.8757554546469577  0.3717562354753987
  0.2431446830500950  0.5012069764601390  0.2495535216748010
  0.1252373366311476  0.6231189370038978  0.6313197840914360
  0.6261681774279659  0.1232830147620012  0.6262161337986200
  0.2486118325852399  0.2544227275072972  0.4968947535975616
 -0.0010419171342116  0.5015636356845844  0.0049091623812431
  0.7562482819840817 -0.0017126468851154  0.2484233636694834
  0.0001840961932498  0.2469184453699718  0.7493845332153427
  0.6234650186184023  0.6284489801226579  0.1291736702196026
  0.7537838161634087  0.7507226488638347  0.5031758565854709
  0.2444327437518740  0.7544230998182668 -0.0025712457319510
  0.5006712013822723  0.2474056980977733  0.2499581920380222
  0.2489221580435631  0.0012760959854513  0.7504393682893250
  0.0007595073356146 -0.0009028419899838  0.5033536052485094
  0.4986342384450793 -0.0000886200239439 -0.0041824347441353
  0.2742387359958875  0.2510298556707477  0.2538560169349313
  0.7475768262654453  0.7404964611410446  0.7365864249638541
  0.4840449250504524  0.0010486553811788  0.7664968770548406
  0.5047139414134769  0.0134823010413269  0.2290156363762402
  0.9861855472787339  0.7669619641508505  0.5022980806535481
 -0.0041927427862092  0.2323330799958935  0.5172341558476289
  0.7535473450949361  0.4856910803729623  0.9839208604257804
  0.2422603482701961  0.5297912149559229 -0.0066627496594350
  0.0045889109525512  0.5029672349521223  0.2433539762156738
  0.9904723523911420  0.4739030481032763  0.7524069210467299
  0.5094601430842661  0.2320945451590869  0.0130058285935217
  0.4802050409960227  0.7706582885831758  0.9912035778475267
  0.2306717299166405  0.0003601265106511  0.5160463565145016
  0.7690414976501058  0.9815493829694187  0.5055595235566548
  0.2537197381420991  0.7701276210889340  0.7650267321036627
  0.7355423234503702  0.2464783436470882  0.2403929809916794
  0.4927643885939567  0.4747908543384286  0.2602652030139288
  0.5095289726749257  0.5000212417488736  0.7376888263056224
  0.9913867249327657  0.2420896203218691  0.9795994348349758
  0.0165467820325315  0.7580695236768411  0.0040418792583036
  0.0097651054968513  0.0117361279715851  0.7382177964849340
  0.9984016742851379  0.9980497623736579  0.2781127615327657
  0.5220311203850503  0.7450224716558153  0.5030491521532432
  0.5027569225174736  0.2540151708168748  0.4780652938949710
  0.7692521456874650  0.2551838689234809  0.7580121917601486
  0.2459939897273878  0.7484830679017819  0.2246110186432853
  0.2635881974374517  0.4978427006600590  0.4978644690956873
  0.7433503422133686  0.5181062733062153  0.5086066291990239
  0.7285607203383435  0.0042555269713097 -0.0049119599010154
  0.2653349675711357  0.9909335795743761  0.9874610092992967
  0.7602989545708490  0.7579498138822870  0.2781642690133895
  0.2313737248965622  0.2356603869305662  0.7479826356950013
 
  0.00000000E+00  0.00000000E+00  0.00000000E+00
  0.00000000E+00  0.00000000E+00  0.00000000E+00
  0.00000000E+00  0.00000000E+00  0.00000000E+00
  0.00000000E+00  0.00000000E+00  0.00000000E+00
  0.00000000E+00  0.00000000E+00  0.00000000E+00
  0.00000000E+00  0.00000000E+00  0.00000000E+00
  0.00000000E+00  0.00000000E+00  0.00000000E+00
  0.00000000E+00  0.00000000E+00  0.00000000E+00
  0.00000000E+00  0.00000000E+00  0.00000000E+00
  0.00000000E+00  0.00000000E+00  0.00000000E+00
  0.00000000E+00  0.00000000E+00  0.00000000E+00
  0.00000000E+00  0.00000000E+00  0.00000000E+00
  0.00000000E+00  0.00000000E+00  0.00000000E+00
  0.00000000E+00  0.00000000E+00  0.00000000E+00
  0.00000000E+00  0.00000000E+00  0.00000000E+00
  0.00000000E+00  0.00000000E+00  0.00000000E+00
  0.00000000E+00  0.00000000E+00  0.00000000E+00
  0.00000000E+00  0.00000000E+00  0.00000000E+00
  0.00000000E+00  0.00000000E+00  0.00000000E+00
  0.00000000E+00  0.00000000E+00  0.00000000E+00
  0.00000000E+00  0.00000000E+00  0.00000000E+00
  0.00000000E+00  0.00000000E+00  0.00000000E+00
  0.00000000E+00  0.00000000E+00  0.00000000E+00
  0.00000000E+00  0.00000000E+00  0.00000000E+00
  0.00000000E+00  0.00000000E+00  0.00000000E+00
  0.00000000E+00  0.00000000E+00  0.00000000E+00
  0.00000000E+00  0.00000000E+00  0.00000000E+00
  0.00000000E+00  0.00000000E+00  0.00000000E+00
  0.00000000E+00  0.00000000E+00  0.00000000E+00
  0.00000000E+00  0.00000000E+00  0.00000000E+00
  0.00000000E+00  0.00000000E+00  0.00000000E+00
  0.00000000E+00  0.00000000E+00  0.00000000E+00
  0.00000000E+00  0.00000000E+00  0.00000000E+00
  0.00000000E+00  0.00000000E+00  0.00000000E+00
  0.00000000E+00  0.00000000E+00  0.00000000E+00
  0.00000000E+00  0.00000000E+00  0.00000000E+00
  0.00000000E+00  0.00000000E+00  0.00000000E+00
  0.00000000E+00  0.00000000E+00  0.00000000E+00
  0.00000000E+00  0.00000000E+00  0.00000000E+00
  0.00000000E+00  0.00000000E+00  0.00000000E+00
  0.00000000E+00  0.00000000E+00  0.00000000E+00
  0.00000000E+00  0.00000000E+00  0.00000000E+00
  0.00000000E+00  0.00000000E+00  0.00000000E+00
  0.00000000E+00  0.00000000E+00  0.00000000E+00
  0.00000000E+00  0.00000000E+00  0.00000000E+00
  0.00000000E+00  0.00000000E+00  0.00000000E+00
  0.00000000E+00  0.00000000E+00  0.00000000E+00
  0.00000000E+00  0.00000000E+00  0.00000000E+00
  0.00000000E+00  0.00000000E+00  0.00000000E+00
  0.00000000E+00  0.00000000E+00  0.00000000E+00
  0.00000000E+00  0.00000000E+00  0.00000000E+00
  0.00000000E+00  0.00000000E+00  0.00000000E+00
  0.00000000E+00  0.00000000E+00  0.00000000E+00
  0.00000000E+00  0.00000000E+00  0.00000000E+00
  0.00000000E+00  0.00000000E+00  0.00000000E+00
  0.00000000E+00  0.00000000E+00  0.00000000E+00
