Iron diiron(III) oxide                  
   1.00000000000000     
     8.3927243429217864   -0.0065059632795540    0.0012092797507611
    -0.0065168985868473    8.4460718411035884    0.0106855526248396
     0.0012130068029771    0.0106363286586640    8.4078433530774728
   Zn   Fe   Ni   Co   Mn   O 
     2     3     3     8     8    32
Direct
  0.8779331350746636  0.8805377000503402  0.8798024036231291
  0.6292358400035198  0.6244486444467872  0.1235977074126755
  0.1257828672979180  0.6290948647699627  0.6235372569890237
  0.8740945547093246  0.3800702700864627  0.3711750948758098
  0.7516894143759436  0.5091298343246279  0.7556938977883618
  0.7485697060416733 -0.0055351380941590  0.2489288120759887
  0.5006080120941585 -0.0052522083713959  0.0018942753676314
  0.2518082447204589  0.5059382303540035  0.2477410476564888
  0.3757050154485536  0.8742439060341629  0.3736480565144673
  0.2561335791958333  0.7441702561259604  0.0009372007325647
  0.3768750502338094  0.3751495205476078  0.8728584445467220
  0.7491514483969198  0.7555473034053072  0.5009543810022218
 -0.0037808801541341 -0.0056580066283757  0.5021566176594006
  0.0038362286857517  0.5035711909815989 -0.0030517230679662
  0.5049679235308827  0.7510538604277222  0.7590031154030127
 -0.0009686321081292  0.2484513778705255  0.7491967680841838
  0.2487250426693997 -0.0055415870004287  0.7516408858682403
  0.2475299661097956  0.2487453869399805  0.4985635910414744
  0.7497453157118646  0.2498926007253526 -0.0003019144606068
  0.4986156791455701  0.2530689517541206  0.2497356150606554
  0.1221485952964188  0.1206104557140834  0.1222052677490671
 -0.0021233701080433  0.7507655047721412  0.2472102854520100
  0.4988052775429336  0.5050455966457477  0.4967470419159008
  0.6237859589584269  0.1216817769694246  0.6283214906313486
  0.2674157626248439  0.2591940843037380  0.2646639672485925
  0.7503180827242659  0.7402658637002625  0.7502070493612009
  0.4763724763823333  0.9880364986053025  0.7587539626387573
  0.4949693244646444  0.0188749511990378  0.2521081417426050
 -0.0009374873721143  0.7429114028549143  0.4795849532002754
  0.0120169984759240  0.2512014376766585  0.4935987354366577
  0.7484071335552718  0.4823625843774084  0.9918070695597823
  0.2482386513318699  0.5116649912630051  0.0073261915040453
  0.0051208242699040  0.5159048212744333  0.2479332273212808
  0.9932342556565674  0.4957996125896129  0.7467875369902459
  0.5123680596337490  0.2449640451857949  0.0206079596357552
  0.4852170925976408  0.7507237197704466  0.0047896099932519
  0.2511538211837627 -0.0090651397457919  0.5162172706398644
  0.7585111648372359  0.9916345021187219  0.4887617812444900
  0.2469464623114516  0.7632829846326551  0.7614712142562193
  0.7355956867111813  0.2488750433584216  0.2393780778381777
  0.4987564455591337  0.4847981395791168  0.2646539756203313
  0.5078533622290922  0.5071444741154740  0.7247980360064106
  0.9759747467942399  0.2608503023147274  0.9968873099941223
  0.0142455304577140  0.7505360988230889  0.0191463377902909
  0.0186916810924815  0.0059786975697810  0.7474095684088766
  0.9921178677058570  0.9739531379177938  0.2581411505269673
  0.4992960453299813  0.7352239039577279  0.4943684838154696
  0.4880231266247826  0.2698990117483931  0.4844143998206261
  0.7519286288760836  0.2646267396069934  0.7735789132020328
  0.2365643203324096  0.7523859925842932  0.2424291481602028
  0.2695187994538555  0.5046871199066020  0.4966519064188960
  0.7319338497264531  0.4978345793339951  0.5062721355286289
  0.7435766102417123  0.0215959747350859  0.0045542967480563
  0.2576002140809572  0.9872008598980558  0.9778209726417879
  0.7695196406199993  0.7503234889226550  0.2506683409823303
  0.2505768486132030  0.2270997829700363  0.7320126558019616
 
  0.00000000E+00  0.00000000E+00  0.00000000E+00
  0.00000000E+00  0.00000000E+00  0.00000000E+00
  0.00000000E+00  0.00000000E+00  0.00000000E+00
  0.00000000E+00  0.00000000E+00  0.00000000E+00
  0.00000000E+00  0.00000000E+00  0.00000000E+00
  0.00000000E+00  0.00000000E+00  0.00000000E+00
  0.00000000E+00  0.00000000E+00  0.00000000E+00
  0.00000000E+00  0.00000000E+00  0.00000000E+00
  0.00000000E+00  0.00000000E+00  0.00000000E+00
  0.00000000E+00  0.00000000E+00  0.00000000E+00
  0.00000000E+00  0.00000000E+00  0.00000000E+00
  0.00000000E+00  0.00000000E+00  0.00000000E+00
  0.00000000E+00  0.00000000E+00  0.00000000E+00
  0.00000000E+00  0.00000000E+00  0.00000000E+00
  0.00000000E+00  0.00000000E+00  0.00000000E+00
  0.00000000E+00  0.00000000E+00  0.00000000E+00
  0.00000000E+00  0.00000000E+00  0.00000000E+00
  0.00000000E+00  0.00000000E+00  0.00000000E+00
  0.00000000E+00  0.00000000E+00  0.00000000E+00
  0.00000000E+00  0.00000000E+00  0.00000000E+00
  0.00000000E+00  0.00000000E+00  0.00000000E+00
  0.00000000E+00  0.00000000E+00  0.00000000E+00
  0.00000000E+00  0.00000000E+00  0.00000000E+00
  0.00000000E+00  0.00000000E+00  0.00000000E+00
  0.00000000E+00  0.00000000E+00  0.00000000E+00
  0.00000000E+00  0.00000000E+00  0.00000000E+00
  0.00000000E+00  0.00000000E+00  0.00000000E+00
  0.00000000E+00  0.00000000E+00  0.00000000E+00
  0.00000000E+00  0.00000000E+00  0.00000000E+00
  0.00000000E+00  0.00000000E+00  0.00000000E+00
  0.00000000E+00  0.00000000E+00  0.00000000E+00
  0.00000000E+00  0.00000000E+00  0.00000000E+00
  0.00000000E+00  0.00000000E+00  0.00000000E+00
  0.00000000E+00  0.00000000E+00  0.00000000E+00
  0.00000000E+00  0.00000000E+00  0.00000000E+00
  0.00000000E+00  0.00000000E+00  0.00000000E+00
  0.00000000E+00  0.00000000E+00  0.00000000E+00
  0.00000000E+00  0.00000000E+00  0.00000000E+00
  0.00000000E+00  0.00000000E+00  0.00000000E+00
  0.00000000E+00  0.00000000E+00  0.00000000E+00
  0.00000000E+00  0.00000000E+00  0.00000000E+00
  0.00000000E+00  0.00000000E+00  0.00000000E+00
  0.00000000E+00  0.00000000E+00  0.00000000E+00
  0.00000000E+00  0.00000000E+00  0.00000000E+00
  0.00000000E+00  0.00000000E+00  0.00000000E+00
  0.00000000E+00  0.00000000E+00  0.00000000E+00
  0.00000000E+00  0.00000000E+00  0.00000000E+00
  0.00000000E+00  0.00000000E+00  0.00000000E+00
  0.00000000E+00  0.00000000E+00  0.00000000E+00
  0.00000000E+00  0.00000000E+00  0.00000000E+00
  0.00000000E+00  0.00000000E+00  0.00000000E+00
  0.00000000E+00  0.00000000E+00  0.00000000E+00
  0.00000000E+00  0.00000000E+00  0.00000000E+00
  0.00000000E+00  0.00000000E+00  0.00000000E+00
  0.00000000E+00  0.00000000E+00  0.00000000E+00
  0.00000000E+00  0.00000000E+00  0.00000000E+00
