Iron diiron(III) oxide                  
   1.00000000000000     
     8.4441321607127726   -0.0155411868661088   -0.0264094201970952
    -0.0155075892792463    8.3051025074439799   -0.0045977818367878
    -0.0266449173921336   -0.0044408444989370    8.4470101378131854
   Zn   Fe   Ni   Co   Mn   O 
     2     3     3     8     8    32
Direct
  0.1295754412966133  0.1255988821065060  0.1250106483441766
  0.6337881713619340  0.6221641665772887  0.1254543734623784
 -0.0032246285032732  0.7524297760616077  0.2466326298108627
  0.7580949562727815 -0.0051152674203976  0.2511210308318913
  0.3744956172634618  0.8747925586401980  0.3774134814833655
  0.7505699114583341  0.7489440023983679  0.4958989645647223
  0.5049994071064370  0.4999317382055832  0.4986939161884610
 -0.0007971462043668  0.0010144459276399  0.4975996857582604
  0.2516594581180684  0.2478271962798068  0.4999327126967275
  0.8693352758446741  0.3797355539173020  0.3797077005357151
  0.7494305280382613  0.2517852200440968 -0.0002766554112296
  0.3741452149922320  0.3760031997642668  0.8745366318159393
  0.2459577643869351 -0.0008400552328759  0.7496036805894148
  0.7482600058878981  0.5042197066528195  0.7474154139490690
  0.8688472543228222  0.8744481593505247  0.8723138153909309
  0.4995170711088275  0.7445448637372201  0.7510144590344355
  0.2500153273906552  0.7519114802899344  0.0042983750129811
  0.0021083889416170  0.2524763023274067  0.7497447010231333
  0.2528924359908481  0.4990022805599425  0.2514859789127149
  0.6282971436836456  0.1221283229562556  0.6277015128012130
 -0.0030523977578389  0.5011409369638000  0.0022963293021232
  0.4973119748124270 -0.0034162196666484  0.0032058525368811
  0.1239663279499640  0.6273001602230501  0.6188734533198387
  0.5018892360980211  0.2509644085028617  0.2495155194255070
  0.2704101248313668  0.2580833995043689  0.2479649144937268
  0.7424246381030550  0.7341873787622685  0.7392508464723777
  0.4925931553947389  0.9930884800565016  0.7801378354262661
  0.5044904319918908  0.0111446595827771  0.2395226975051787
  0.9818567635886493  0.7550311058740518  0.4722492222925957
  0.0033036554185301  0.2493979295934111  0.5225143139397067
  0.7718313035998585  0.5024725117139025  0.9885230867625658
  0.2338208134634382  0.5162834892588944  0.0169230777270695
 -0.0017787362161981  0.5148308028780518  0.2308652874841119
  0.9954801272972664  0.4887612819310333  0.7724257704302653
  0.4996878807643182  0.2295421160582736  0.0158141519118218
  0.4801482796452489  0.7615207922033544  0.0110236012381617
  0.2425875388898009 -0.0038559755592872  0.5059026815791250
  0.7576886713890344  0.9772876023420755  0.4851883323662002
  0.2551940466246559  0.7498989016250156  0.7812708997378623
  0.7316562111508302  0.2378426971222529  0.2463248949007941
  0.5034262208036775  0.4794514866855720  0.2450781099849681
  0.5125346125931626  0.5012211828206716  0.7434065172257133
  0.0021096497148317  0.2678526732633810  0.9886929716631836
  0.0165562932159780  0.7391019183736799  0.0111434003344332
 -0.0007969014428106  0.0217250150339269  0.7468123674456751
  0.9915401287123740  0.9894677800190753  0.2442880613271777
  0.5112031397289692  0.7496432105721170  0.4995917410052448
  0.4970065740567080  0.2536705987421687  0.4740740486196582
  0.7708938618065798  0.2710539824115917  0.7561677554942717
  0.2349856764482594  0.7453931725915715  0.2399258314420991
  0.2614685628001605  0.4966849085121565  0.4737578018982427
  0.7459712566920451  0.5215471347350320  0.5129991889809525
  0.7243117256620640 -0.0002189074493301  0.0105608947202956
  0.2643576234829830  0.9830827484572033  0.0039028404699427
  0.7661569726857838  0.7569243616546460  0.2493483133111696
  0.2287969572417690  0.2488897414630360  0.7451543304296316
 
  0.00000000E+00  0.00000000E+00  0.00000000E+00
  0.00000000E+00  0.00000000E+00  0.00000000E+00
  0.00000000E+00  0.00000000E+00  0.00000000E+00
  0.00000000E+00  0.00000000E+00  0.00000000E+00
  0.00000000E+00  0.00000000E+00  0.00000000E+00
  0.00000000E+00  0.00000000E+00  0.00000000E+00
  0.00000000E+00  0.00000000E+00  0.00000000E+00
  0.00000000E+00  0.00000000E+00  0.00000000E+00
  0.00000000E+00  0.00000000E+00  0.00000000E+00
  0.00000000E+00  0.00000000E+00  0.00000000E+00
  0.00000000E+00  0.00000000E+00  0.00000000E+00
  0.00000000E+00  0.00000000E+00  0.00000000E+00
  0.00000000E+00  0.00000000E+00  0.00000000E+00
  0.00000000E+00  0.00000000E+00  0.00000000E+00
  0.00000000E+00  0.00000000E+00  0.00000000E+00
  0.00000000E+00  0.00000000E+00  0.00000000E+00
  0.00000000E+00  0.00000000E+00  0.00000000E+00
  0.00000000E+00  0.00000000E+00  0.00000000E+00
  0.00000000E+00  0.00000000E+00  0.00000000E+00
  0.00000000E+00  0.00000000E+00  0.00000000E+00
  0.00000000E+00  0.00000000E+00  0.00000000E+00
  0.00000000E+00  0.00000000E+00  0.00000000E+00
  0.00000000E+00  0.00000000E+00  0.00000000E+00
  0.00000000E+00  0.00000000E+00  0.00000000E+00
  0.00000000E+00  0.00000000E+00  0.00000000E+00
  0.00000000E+00  0.00000000E+00  0.00000000E+00
  0.00000000E+00  0.00000000E+00  0.00000000E+00
  0.00000000E+00  0.00000000E+00  0.00000000E+00
  0.00000000E+00  0.00000000E+00  0.00000000E+00
  0.00000000E+00  0.00000000E+00  0.00000000E+00
  0.00000000E+00  0.00000000E+00  0.00000000E+00
  0.00000000E+00  0.00000000E+00  0.00000000E+00
  0.00000000E+00  0.00000000E+00  0.00000000E+00
  0.00000000E+00  0.00000000E+00  0.00000000E+00
  0.00000000E+00  0.00000000E+00  0.00000000E+00
  0.00000000E+00  0.00000000E+00  0.00000000E+00
  0.00000000E+00  0.00000000E+00  0.00000000E+00
  0.00000000E+00  0.00000000E+00  0.00000000E+00
  0.00000000E+00  0.00000000E+00  0.00000000E+00
  0.00000000E+00  0.00000000E+00  0.00000000E+00
  0.00000000E+00  0.00000000E+00  0.00000000E+00
  0.00000000E+00  0.00000000E+00  0.00000000E+00
  0.00000000E+00  0.00000000E+00  0.00000000E+00
  0.00000000E+00  0.00000000E+00  0.00000000E+00
  0.00000000E+00  0.00000000E+00  0.00000000E+00
  0.00000000E+00  0.00000000E+00  0.00000000E+00
  0.00000000E+00  0.00000000E+00  0.00000000E+00
  0.00000000E+00  0.00000000E+00  0.00000000E+00
  0.00000000E+00  0.00000000E+00  0.00000000E+00
  0.00000000E+00  0.00000000E+00  0.00000000E+00
  0.00000000E+00  0.00000000E+00  0.00000000E+00
  0.00000000E+00  0.00000000E+00  0.00000000E+00
  0.00000000E+00  0.00000000E+00  0.00000000E+00
  0.00000000E+00  0.00000000E+00  0.00000000E+00
  0.00000000E+00  0.00000000E+00  0.00000000E+00
  0.00000000E+00  0.00000000E+00  0.00000000E+00
