Iron diiron(III) oxide                  
   1.00000000000000     
     8.3970083787313232    0.0046255095652227   -0.0076380702656952
     0.0046320352781396    8.4217245611260552    0.0100456989509439
    -0.0076213881883196    0.0100507221859653    8.4464111457004627
   Zn   Fe   Ni   Co   Mn   O 
     2     3     3     8     8    32
Direct
  0.6254587554666815  0.6176854547842016  0.1138239334550537
  0.1153040060262069  0.1190249969772978  0.1121087227079468
  0.6249517236526565  0.1197858320957638  0.6209710206331033
  0.7528879045223178  0.7470472442708753  0.5054501618834313
  0.7528013054573136 -0.0011111313478708  0.2441075656397874
 -0.0031635569273911  0.2497059482518158  0.7521761004933308
  0.5013148665284255  0.0012914744448941 -0.0013721412944183
  0.0000026415806789 -0.0013086683305382  0.5017425282335378
  0.7526245893460020  0.5022816288878998  0.7538820947144999
  0.3786560801841513  0.3795252579976147  0.8806189356125075
  0.7497453494641949  0.2499524320495700 -0.0018804571260208
  0.5018728470834606  0.5007890867528410  0.5045305232631265
  0.2506443814997084  0.7505535880987352 -0.0014875420174288
  0.1235275939198871  0.6220778952988932  0.6236411788908447
  0.8780880488909447  0.8810202097260413  0.8814530235674078
  0.0000571654490633  0.4974976512976516 -0.0065079522826801
 -0.0004422604237878  0.7493193518917783  0.2483170329992055
  0.5015290874062289  0.7520294610755620  0.7539834364398665
  0.2483211224579718  0.0025448061432170  0.7529120660917388
  0.2486627352244457  0.2483097524829071  0.5019974555892848
  0.2499685779356455  0.4971301233181849  0.2481802463969926
  0.3731160618315026  0.8764016017482642  0.3771353231056757
  0.5000072520066623  0.2493710451000030  0.2461408569440221
  0.8773817772738881  0.3757357790331456  0.3799562026131650
  0.2597945783309531  0.2587343667070017  0.2619209771509483
  0.7317429546341739  0.7567613267531278  0.7439946537066781
  0.4864909112005980  0.9895729122965208  0.7522819421359143
  0.5079682013553440  0.0194836110439649  0.2407591601688882
  0.9909795356826090  0.7560167645490251  0.4802478125290875
  0.0251704137545284  0.2395883887719621  0.5078895260469558
  0.7517358298086791  0.4768602258246163  0.9942024222048501
  0.2474463141949275  0.5044266031802139  0.0245405535961482
  0.0195273394068042  0.5171171744819640  0.2478838410886909
  0.9939389632334934  0.4910674027939338  0.7551466361192344
  0.5127572614880236  0.2458749545667751  0.0200073139604046
  0.4975603715192601  0.7574888156509709  0.9829113680754618
  0.2453176840965408  0.0196072690231489  0.5201448333617091
  0.7556776409118133  0.9921423494968231  0.4873236756408955
  0.2664947232252183  0.7715927489240096  0.7470950389433517
  0.7270625478930810  0.2397013808493766  0.2501932389918278
  0.4839036784467644  0.4840492819511975  0.2524649781486547
  0.4983188600825173  0.5266805101306063  0.7476611901345687
  0.9802308473679406  0.2534581633542355 -0.0042851546031026
  0.0058556296256048  0.7462708466275225  0.0229277191918040
  0.0233715239791240  0.0035628744907444  0.7442527477435376
  0.9949625649788165  0.9826332243780422  0.2537313377595639
  0.5120823456217576  0.7500376413637053  0.5230566524240614
  0.4856422045325202  0.2460228020666779  0.4825322599563642
  0.7483049502222553  0.2469906826275231  0.7473993009002833
  0.2343127082767438  0.7277096345079995  0.2517932999067375
  0.2548371997026353  0.4781528973962056  0.4828748845652340
  0.7396874438198826  0.5165523509595906  0.5101043681494876
  0.7434703100105189  0.0214510889380607  0.0109819481942314
  0.2570034674046596  0.0002020696344032  0.9791026240048378
  0.7611571318738338  0.7570791134615330  0.2539073854651179
  0.2538758074615152  0.2364497011497675  0.7330711477835918
 
  0.00000000E+00  0.00000000E+00  0.00000000E+00
  0.00000000E+00  0.00000000E+00  0.00000000E+00
  0.00000000E+00  0.00000000E+00  0.00000000E+00
  0.00000000E+00  0.00000000E+00  0.00000000E+00
  0.00000000E+00  0.00000000E+00  0.00000000E+00
  0.00000000E+00  0.00000000E+00  0.00000000E+00
  0.00000000E+00  0.00000000E+00  0.00000000E+00
  0.00000000E+00  0.00000000E+00  0.00000000E+00
  0.00000000E+00  0.00000000E+00  0.00000000E+00
  0.00000000E+00  0.00000000E+00  0.00000000E+00
  0.00000000E+00  0.00000000E+00  0.00000000E+00
  0.00000000E+00  0.00000000E+00  0.00000000E+00
  0.00000000E+00  0.00000000E+00  0.00000000E+00
  0.00000000E+00  0.00000000E+00  0.00000000E+00
  0.00000000E+00  0.00000000E+00  0.00000000E+00
  0.00000000E+00  0.00000000E+00  0.00000000E+00
  0.00000000E+00  0.00000000E+00  0.00000000E+00
  0.00000000E+00  0.00000000E+00  0.00000000E+00
  0.00000000E+00  0.00000000E+00  0.00000000E+00
  0.00000000E+00  0.00000000E+00  0.00000000E+00
  0.00000000E+00  0.00000000E+00  0.00000000E+00
  0.00000000E+00  0.00000000E+00  0.00000000E+00
  0.00000000E+00  0.00000000E+00  0.00000000E+00
  0.00000000E+00  0.00000000E+00  0.00000000E+00
  0.00000000E+00  0.00000000E+00  0.00000000E+00
  0.00000000E+00  0.00000000E+00  0.00000000E+00
  0.00000000E+00  0.00000000E+00  0.00000000E+00
  0.00000000E+00  0.00000000E+00  0.00000000E+00
  0.00000000E+00  0.00000000E+00  0.00000000E+00
  0.00000000E+00  0.00000000E+00  0.00000000E+00
  0.00000000E+00  0.00000000E+00  0.00000000E+00
  0.00000000E+00  0.00000000E+00  0.00000000E+00
  0.00000000E+00  0.00000000E+00  0.00000000E+00
  0.00000000E+00  0.00000000E+00  0.00000000E+00
  0.00000000E+00  0.00000000E+00  0.00000000E+00
  0.00000000E+00  0.00000000E+00  0.00000000E+00
  0.00000000E+00  0.00000000E+00  0.00000000E+00
  0.00000000E+00  0.00000000E+00  0.00000000E+00
  0.00000000E+00  0.00000000E+00  0.00000000E+00
  0.00000000E+00  0.00000000E+00  0.00000000E+00
  0.00000000E+00  0.00000000E+00  0.00000000E+00
  0.00000000E+00  0.00000000E+00  0.00000000E+00
  0.00000000E+00  0.00000000E+00  0.00000000E+00
  0.00000000E+00  0.00000000E+00  0.00000000E+00
  0.00000000E+00  0.00000000E+00  0.00000000E+00
  0.00000000E+00  0.00000000E+00  0.00000000E+00
  0.00000000E+00  0.00000000E+00  0.00000000E+00
  0.00000000E+00  0.00000000E+00  0.00000000E+00
  0.00000000E+00  0.00000000E+00  0.00000000E+00
  0.00000000E+00  0.00000000E+00  0.00000000E+00
  0.00000000E+00  0.00000000E+00  0.00000000E+00
  0.00000000E+00  0.00000000E+00  0.00000000E+00
  0.00000000E+00  0.00000000E+00  0.00000000E+00
  0.00000000E+00  0.00000000E+00  0.00000000E+00
  0.00000000E+00  0.00000000E+00  0.00000000E+00
  0.00000000E+00  0.00000000E+00  0.00000000E+00
