Iron diiron(III) oxide                  
   1.00000000000000     
     8.4503740735348938    0.0034766409996763   -0.0272959688971295
     0.0034294078696720    8.4081353785285078   -0.0129392330899781
    -0.0273369611505749   -0.0129868895800541    8.3552194758486902
   Zn   Fe   Ni   Co   Mn   O 
     2     3     3     8     8    32
Direct
  0.6284995028058560  0.6195369131658683  0.1267641523224977
  0.1225938436457946  0.1202772463068417  0.1290591583681632
 -0.0050008739611938  0.7562658462898276  0.2477568427466523
 -0.0032106851480123  0.5023091696692860  0.0053691953650776
  0.2508713401067116  0.2500604178329965  0.4916782564182954
  0.7488795745350968  0.0003466018751330  0.2491054099625160
  0.7490443568209129  0.4985337400732557  0.7483924037610565
 -0.0017380710112047  0.0014251316054388  0.4969075836652344
  0.8720379166922827  0.8799830326297337  0.8726869723757507
  0.5009595394712373  0.2509207551662163  0.2492328293582418
  0.2536224369371819  0.4993981380069581  0.2492883757235855
  0.3762478299861590  0.3806641891424678  0.8753908288217248
  0.3777741522084995  0.8794934259120558  0.3743633723116381
  0.8735177553465076  0.3778375564543215  0.3731562954105123
  0.6255127090608821  0.1192415687021345  0.6242133180736272
  0.5032579271013503  0.4961972015354242  0.4977346158593162
  0.5076997347117659  0.7477466588384655  0.7536434321067950
  0.1211824637493120  0.6232565994375228  0.6276155449375709
  0.7481320894210919  0.2484342500269904  0.0006876676759542
  0.2490996924012053  0.0029565607800032  0.7547088409287779
 -0.0014224211942242  0.2466724885821735  0.7523083892908300
  0.7490868859081486  0.7512006915449221  0.4974367484632792
  0.5031519302356647  0.0020965720742856  0.0013751449600962
  0.2503240660930571  0.7538647988856568  0.0040267103692836
  0.2607800208698996  0.2476402826745183  0.2566090371665810
  0.7539873836966114  0.7438683273550765  0.7268292462129515
  0.4814288045037134  0.9913470509173588  0.7639100924062465
  0.5039013092699999  0.0168288364013881  0.2328588924593262
  0.9764558919430308  0.7565434609080366  0.4875921490398663
  0.0090022630971030  0.2476369307800421  0.5212757408524404
  0.7565318568859731  0.4781219392054702  0.9956558194906120
  0.2365137073912466  0.5194324741672005 -0.0018127511378860
  0.0090290966750252  0.5101091727740052  0.2402132151551412
  0.9906657861677507  0.4718967260193279  0.7628222348246345
  0.5183501747077449  0.2399205714519207  0.0020005105854283
  0.5092700485854885  0.7621651674613770  0.9863101383217613
  0.2464259247106897  0.0088487419157243  0.5245287588729609
  0.7548532263047365  0.9798553784295142  0.4938912272036226
  0.2512434362248209  0.7752277143525432  0.7682103163796177
  0.7394547265442907  0.2452578388834564  0.2298497930606892
  0.5004491347655653  0.4832685182789777  0.2571891223053829
  0.5080655832281499  0.5126898450816437  0.7385644752771058
  0.9836658255448419  0.2513964253182990  0.9886945087917146
 -0.0081299984816672  0.7379270173886108  0.0093456574905006
  0.0193395100881138  0.0157697568005501  0.7485582169537411
  0.9917574765481195  0.9916237416562503  0.2538493668135070
  0.5148138648616114  0.7431646339274678  0.5160980088854326
  0.4930349379098125  0.2571988899847483  0.4903969959257596
  0.7679523317205522  0.2480963123775080  0.7646830156135256
  0.2397579782905244  0.7496158063310773  0.2356822451604583
  0.2736382196903179  0.4860966203257718  0.4984823390149548
  0.7350880359761757  0.5176109810370627  0.5021613280847792
  0.7338980025931523  0.0194012695245117 -0.0004590403445395
  0.2636850075605466  0.9934315435128863  0.9894493240100968
  0.7521925549551656  0.7539938657518465  0.2654045333219728
  0.2327741812468100  0.2352946044678481  0.7482533925251376
 
  0.00000000E+00  0.00000000E+00  0.00000000E+00
  0.00000000E+00  0.00000000E+00  0.00000000E+00
  0.00000000E+00  0.00000000E+00  0.00000000E+00
  0.00000000E+00  0.00000000E+00  0.00000000E+00
  0.00000000E+00  0.00000000E+00  0.00000000E+00
  0.00000000E+00  0.00000000E+00  0.00000000E+00
  0.00000000E+00  0.00000000E+00  0.00000000E+00
  0.00000000E+00  0.00000000E+00  0.00000000E+00
  0.00000000E+00  0.00000000E+00  0.00000000E+00
  0.00000000E+00  0.00000000E+00  0.00000000E+00
  0.00000000E+00  0.00000000E+00  0.00000000E+00
  0.00000000E+00  0.00000000E+00  0.00000000E+00
  0.00000000E+00  0.00000000E+00  0.00000000E+00
  0.00000000E+00  0.00000000E+00  0.00000000E+00
  0.00000000E+00  0.00000000E+00  0.00000000E+00
  0.00000000E+00  0.00000000E+00  0.00000000E+00
  0.00000000E+00  0.00000000E+00  0.00000000E+00
  0.00000000E+00  0.00000000E+00  0.00000000E+00
  0.00000000E+00  0.00000000E+00  0.00000000E+00
  0.00000000E+00  0.00000000E+00  0.00000000E+00
  0.00000000E+00  0.00000000E+00  0.00000000E+00
  0.00000000E+00  0.00000000E+00  0.00000000E+00
  0.00000000E+00  0.00000000E+00  0.00000000E+00
  0.00000000E+00  0.00000000E+00  0.00000000E+00
  0.00000000E+00  0.00000000E+00  0.00000000E+00
  0.00000000E+00  0.00000000E+00  0.00000000E+00
  0.00000000E+00  0.00000000E+00  0.00000000E+00
  0.00000000E+00  0.00000000E+00  0.00000000E+00
  0.00000000E+00  0.00000000E+00  0.00000000E+00
  0.00000000E+00  0.00000000E+00  0.00000000E+00
  0.00000000E+00  0.00000000E+00  0.00000000E+00
  0.00000000E+00  0.00000000E+00  0.00000000E+00
  0.00000000E+00  0.00000000E+00  0.00000000E+00
  0.00000000E+00  0.00000000E+00  0.00000000E+00
  0.00000000E+00  0.00000000E+00  0.00000000E+00
  0.00000000E+00  0.00000000E+00  0.00000000E+00
  0.00000000E+00  0.00000000E+00  0.00000000E+00
  0.00000000E+00  0.00000000E+00  0.00000000E+00
  0.00000000E+00  0.00000000E+00  0.00000000E+00
  0.00000000E+00  0.00000000E+00  0.00000000E+00
  0.00000000E+00  0.00000000E+00  0.00000000E+00
  0.00000000E+00  0.00000000E+00  0.00000000E+00
  0.00000000E+00  0.00000000E+00  0.00000000E+00
  0.00000000E+00  0.00000000E+00  0.00000000E+00
  0.00000000E+00  0.00000000E+00  0.00000000E+00
  0.00000000E+00  0.00000000E+00  0.00000000E+00
  0.00000000E+00  0.00000000E+00  0.00000000E+00
  0.00000000E+00  0.00000000E+00  0.00000000E+00
  0.00000000E+00  0.00000000E+00  0.00000000E+00
  0.00000000E+00  0.00000000E+00  0.00000000E+00
  0.00000000E+00  0.00000000E+00  0.00000000E+00
  0.00000000E+00  0.00000000E+00  0.00000000E+00
  0.00000000E+00  0.00000000E+00  0.00000000E+00
  0.00000000E+00  0.00000000E+00  0.00000000E+00
  0.00000000E+00  0.00000000E+00  0.00000000E+00
  0.00000000E+00  0.00000000E+00  0.00000000E+00
