SnO2_mp-856_primitive
1.0
        9.6646995544         0.0000000000         0.0000000000
        0.0000000000         9.6646995544         0.0000000000
        0.0000000000         0.0000000000         6.4864001274
   Sn    O
   16   32
  Direct 
     0.250000000         0.250000000         0.250000000
     0.000000000         0.000000000         0.000000000
     0.750000000         0.250000000         0.250000000
     0.500000000         0.000000000         0.000000000
     0.250000000         0.750000000         0.250000000
     0.000000000         0.500000000         0.000000000
     0.750000000         0.750000000         0.250000000
     0.500000000         0.500000000         0.000000000
     0.250000000         0.250000000         0.750000000
     0.000000000         0.000000000         0.500000000
     0.750000000         0.250000000         0.750000000
     0.500000000         0.000000000         0.500000000
     0.250000000         0.750000000         0.750000000
     0.000000000         0.500000000         0.500000000
     0.750000000         0.750000000         0.750000000
     0.500000000         0.500000000         0.500000000
     0.096720000         0.403280000         0.250000000
     0.403280000         0.096720000         0.250000000
     0.346720000         0.346720000         0.000000000
     0.153280000         0.153280000         0.000000000
     0.596720000         0.403280000         0.250000000
     0.903280000         0.096720000         0.250000000
     0.846720000         0.346720000         0.000000000
     0.653280000         0.153280000         0.000000000
     0.096720000         0.903280000         0.250000000
     0.403280000         0.596720000         0.250000000
     0.346720000         0.846720000         0.000000000
     0.153280000         0.653280000         0.000000000
     0.596720000         0.903280000         0.250000000
     0.903280000         0.596720000         0.250000000
     0.846720000         0.846720000         0.000000000
     0.653280000         0.653280000         0.000000000
     0.096720000         0.403280000         0.750000000
     0.403280000         0.096720000         0.750000000
     0.346720000         0.346720000         0.500000000
     0.153280000         0.153280000         0.500000000
     0.596720000         0.403280000         0.750000000
     0.903280000         0.096720000         0.750000000
     0.846720000         0.346720000         0.500000000
     0.653280000         0.153280000         0.500000000
     0.096720000         0.903280000         0.750000000
     0.403280000         0.596720000         0.750000000
     0.346720000         0.846720000         0.500000000
     0.153280000         0.653280000         0.500000000
     0.596720000         0.903280000         0.750000000
     0.903280000         0.596720000         0.750000000
     0.846720000         0.846720000         0.500000000
     0.653280000         0.653280000         0.500000000
