SnO2_mp-856_primitive                   
   1.00000000000000     
     9.6646995544000003    0.0000000000000000    0.0000000000000000
     0.0000000000000000    9.6646995544000003    0.0000000000000000
     0.0000000000000000    0.0000000000000000    6.4864001273999996
   Sn   O 
    16    32
Direct
  0.8601969481665258  0.0882051893476953  0.9321691480192712
  0.6284662889399328  0.8935269459422389  0.6981622646316197
  0.5513551265532973  0.1985219109583768  0.0678491562692198
  0.3598341529111634  0.6399431055963406  0.6886803690162188
  0.5252705967379583  0.5811435748318853  0.2200150492657645
  0.1033237413416769  0.3488373448636859  0.7563086524511901
  0.0289175597912984  0.8759639387114381  0.2348728782530355
  0.8008037951712195  0.1785753099349275  0.4237198967456129
  0.0099674647495803  0.7395048801218855  0.7498995277717190
  0.1451191878264211  0.2353720224500520  0.2625269591795398
  0.4908894913369570  0.2857650083062952  0.5430785838672654
  0.2690593356120879  0.0218522273159848  0.8269143896248267
  0.1882577435504450  0.5695490650786401  0.1382985465511679
  0.3668411902357880  0.9068338785478424  0.3335150851238574
  0.7252788042747744  0.5242634381381265  0.6874857672545283
  0.8592767404054392  0.4876047225505933  0.1272326426903190
  0.8122784520379427  0.0093073950245083  0.6266884387578608
  0.9986054082812221  0.2347852272781966  0.5064879589937417
  0.4406945024561054  0.0115110480740777  0.5974633952961633
  0.8741271227153856  0.0194614917148452  0.2271016975732204
  0.7764162137506024  0.2724563594546080  0.1172593330091643
  0.3796007376681255  0.0592970988361814  0.1102451384985352
  0.9154295155356379  0.4581235331534833  0.8639989254105110
  0.2199855084824207  0.7919127920417082  0.1664490362376836
  0.0330692129268784  0.1974472895022926  0.9588397101557860
  0.2289861103281598  0.8142813743957507  0.6833326854799774
  0.9660482322561961  0.7438468112465259  0.4412246639999670
  0.3286178795205991  0.5756678503749069  0.3740298758208565
  0.9910423626674194  0.6690235602834407  0.0492023365132162
  0.0075250446519224  0.9235021518132710  0.9223561437062715
  0.7275735983421313  0.5530606409649100  0.3615812626906750
  0.1652928918334535  0.0263962555367567  0.3575716370176534
  0.1530064745700567  0.5595170253829648  0.7502957927353764
  0.4809918034976787  0.8083330053805170  0.9177323431547982
  0.7750472234403295  0.7330576070708791  0.7840321801508940
  0.3741395877408931  0.5701495590527637  0.9780302779378963
  0.5190249819632933  0.7967239291459426  0.1124040249803163
  0.5970153161931878  0.1242378149668026  0.3612748713030924
  0.0365064591541294  0.4493641380476419  0.2869005503783826
  0.4914166048376194  0.3630981257059077  0.2384703430835820
  0.2216781482744181  0.3603491889603025  0.0261662799144280
  0.5154898348226759  0.5006403643882623  0.6150014708074309
  0.2645947360579260  0.2955641099601819  0.5214798311518170
  0.5087679612368957  0.7627688187124956  0.4871158704023653
  0.4370278093217642  0.2447434261849519  0.8715931033119781
  0.6678412547788396  0.5249142239906215  0.9841012875964499
  0.6548767249038142  0.0295285528384452  0.9444455456008424
  0.7077379842194527  0.3051115462307940  0.6327444297154510
 
  0.00000000E+00  0.00000000E+00  0.00000000E+00
  0.00000000E+00  0.00000000E+00  0.00000000E+00
  0.00000000E+00  0.00000000E+00  0.00000000E+00
  0.00000000E+00  0.00000000E+00  0.00000000E+00
  0.00000000E+00  0.00000000E+00  0.00000000E+00
  0.00000000E+00  0.00000000E+00  0.00000000E+00
  0.00000000E+00  0.00000000E+00  0.00000000E+00
  0.00000000E+00  0.00000000E+00  0.00000000E+00
  0.00000000E+00  0.00000000E+00  0.00000000E+00
  0.00000000E+00  0.00000000E+00  0.00000000E+00
  0.00000000E+00  0.00000000E+00  0.00000000E+00
  0.00000000E+00  0.00000000E+00  0.00000000E+00
  0.00000000E+00  0.00000000E+00  0.00000000E+00
  0.00000000E+00  0.00000000E+00  0.00000000E+00
  0.00000000E+00  0.00000000E+00  0.00000000E+00
  0.00000000E+00  0.00000000E+00  0.00000000E+00
  0.00000000E+00  0.00000000E+00  0.00000000E+00
  0.00000000E+00  0.00000000E+00  0.00000000E+00
  0.00000000E+00  0.00000000E+00  0.00000000E+00
  0.00000000E+00  0.00000000E+00  0.00000000E+00
  0.00000000E+00  0.00000000E+00  0.00000000E+00
  0.00000000E+00  0.00000000E+00  0.00000000E+00
  0.00000000E+00  0.00000000E+00  0.00000000E+00
  0.00000000E+00  0.00000000E+00  0.00000000E+00
  0.00000000E+00  0.00000000E+00  0.00000000E+00
  0.00000000E+00  0.00000000E+00  0.00000000E+00
  0.00000000E+00  0.00000000E+00  0.00000000E+00
  0.00000000E+00  0.00000000E+00  0.00000000E+00
  0.00000000E+00  0.00000000E+00  0.00000000E+00
  0.00000000E+00  0.00000000E+00  0.00000000E+00
  0.00000000E+00  0.00000000E+00  0.00000000E+00
  0.00000000E+00  0.00000000E+00  0.00000000E+00
  0.00000000E+00  0.00000000E+00  0.00000000E+00
  0.00000000E+00  0.00000000E+00  0.00000000E+00
  0.00000000E+00  0.00000000E+00  0.00000000E+00
  0.00000000E+00  0.00000000E+00  0.00000000E+00
  0.00000000E+00  0.00000000E+00  0.00000000E+00
  0.00000000E+00  0.00000000E+00  0.00000000E+00
  0.00000000E+00  0.00000000E+00  0.00000000E+00
  0.00000000E+00  0.00000000E+00  0.00000000E+00
  0.00000000E+00  0.00000000E+00  0.00000000E+00
  0.00000000E+00  0.00000000E+00  0.00000000E+00
  0.00000000E+00  0.00000000E+00  0.00000000E+00
  0.00000000E+00  0.00000000E+00  0.00000000E+00
  0.00000000E+00  0.00000000E+00  0.00000000E+00
  0.00000000E+00  0.00000000E+00  0.00000000E+00
  0.00000000E+00  0.00000000E+00  0.00000000E+00
  0.00000000E+00  0.00000000E+00  0.00000000E+00
