Fe  Fe  H   O   S   Ni  Fe Co           
   1.00000000000000     
     5.6388600000000002    0.0000000000000000    0.0000000000000000
     0.0000000000000000   10.2679500000000008    0.0000000000000000
     0.0000000000000000    0.0000000000000000   41.0286899999999974
   Fe   Fe   H    O    S    Ni   Fe   Co
     6     6    12    24    16    22     1     1
Selective dynamics
Direct
  0.7426567452421207  0.1503830177426929  0.1198061181843470   T   T   T
  0.0273870742162983  0.6237458562198041  0.1432026533940748   T   T   T
  0.4306181228655860  0.1407064742832614  0.1801688302016937   T   T   T
  0.6833948547922868  0.6361023338996518  0.1992226942769003   T   T   T
  0.1076916025791710  0.1299208649926607  0.2350280176680269   T   T   T
  0.3835901019469150  0.6504503151688514  0.2611689961000844   T   T   T
  0.2425156674338557  0.3352790096415789  0.1202313930436473   T   T   T
  0.5295284225465319  0.8604841793968538  0.1430259577758101   T   T   T
  0.9287443968443836  0.3466207588297130  0.1810558971521763   T   T   T
  0.1847268723930788  0.8470679673126627  0.1979196606161528   T   T   T
  0.6127044585172845  0.3556180102761209  0.2399201819693575   T   T   T
  0.8810741725400081  0.8471101546888887  0.2591923838533846   T   T   T
  0.7635991223057761  0.4004188677014924  0.1219930722064066   T   T   T
  0.2627982630401100  0.0849873093504002  0.1219432641980756   T   T   T
  0.9515033853619252  0.9108803124576683  0.1259162714340909   T   T   T
  0.4510240197399516  0.5749022938794252  0.1263257141978742   T   T   T
  0.9541168627321408  0.0878664505573436  0.1789985838840702   T   T   T
  0.4655886767078776  0.4035814113861714  0.1802915474349162   T   T   T
  0.1618252497066562  0.5903884889611324  0.2007812466538596   T   T   T
  0.6570032325588780  0.8947855163939488  0.2004415550219337   T   T   T
  0.1776421828368545  0.4074923109095212  0.2559594778730120   T   T   T
  0.6599010981914913  0.0880735827352521  0.2467015471630870   T   T   T
  0.8505059666077782  0.5992432348609322  0.2573963524675028   T   T   T
  0.3482931146027666  0.9043647502929107  0.2558394750614162   T   T   T
  0.0524699059153624  0.1923989123690868  0.1085171985819510   T   T   T
  0.5512174060537975  0.2920841571699067  0.1082282181055288   T   T   T
  0.7943724569453050  0.9482706924219638  0.1215778624719848   T   T   T
  0.2942471238112761  0.5376728607607603  0.1216368903913149   T   T   T
  0.9080572519522387  0.4366988913446848  0.1335152290799949   T   T   T
  0.4066204605274650  0.0479907915092679  0.1336214173955853   T   T   T
  0.2025197202145099  0.7877377324132268  0.1512280349165316   T   T   T
  0.7032868041244071  0.6981877872208864  0.1511703652024228   T   T   T
  0.7529787169960966  0.1884270351221770  0.1678074220073455   T   T   T
  0.2542724461980324  0.2969142011290131  0.1679542798555655   T   T   T
  0.0248881559465570  0.5511695229966562  0.1881166213325499   T   T   T
  0.5183362105780048  0.9335567785206015  0.1879294215727662   T   T   T
  0.0942033949328177  0.0471100178682833  0.1910350415185386   T   T   T
  0.6053888526695569  0.4413458477828159  0.1921446675096808   T   T   T
  0.8615271073837225  0.7991910297345558  0.2131514306179109   T   T   T
  0.3587499470182222  0.6912905655147666  0.2139410419516305   T   T   T
  0.4354133762987061  0.1768028667571461  0.2288211910367220   T   T   T
  0.9495824274965999  0.2915789301170200  0.2272849975948527   T   T   T
  0.7026542921327210  0.5644975797498449  0.2465283194578856   T   T   T
  0.1928635259819176  0.9368914076214623  0.2461526027429049   T   T   T
  0.3286639094006691  0.4438627726431407  0.2641916516220764   T   T   T
  0.8124102553566904  0.0532167729879597  0.2567243004793456   T   T   T
  0.0532947514650213  0.6888678318450377  0.2731554645854530   T   T   T
  0.5536508658041219  0.8194592101839069  0.2708051071088511   T   T   T
  0.9688173239925737  0.3413367294523410  0.3112159503741545   T   T   T
  0.5277203994356700  0.6173449208704599  0.3213806785511977   T   T   T
  0.0473282203087107  0.8631605689577964  0.3258467327241363   T   T   T
  0.4944290225175459  0.0899545903300688  0.3190223461622225   T   T   T
  0.4711688810857185  0.3532202942634029  0.3663150719284116   T   T   T
  0.0053264630593339  0.5981822752490906  0.3763881095194465   T   T   T
  0.5147049509282798  0.8533157956365148  0.3790076604878077   T   T   T
  0.9692985371366489  0.1146434346951209  0.3742103373671911   T   T   T
  0.0631864993286143  0.3585787114384019  0.4271197254013008   T   T   T
  0.5212916963642393  0.5818528587743796  0.4264893094310662   T   T   T
  0.0002045235166729  0.8624253445706208  0.4291216336514850   T   T   T
  0.4863589723074229  0.1252885514951524  0.4265404528683570   T   T   T
  0.5517439401935833  0.4064785744847279  0.5012730152574448   T   T   T
  0.0273533729649802  0.5959858886928447  0.4806024413347934   T   T   T
  0.4881432829191565  0.8640002416908468  0.4804284378491708   T   T   T
  0.9253906130998231  0.1182203435683983  0.4908475495209423   T   T   T
  0.8469770198006991  0.1450997150700549  0.2998543353696297   T   T   T
  0.7445951197375029  0.4593838211751045  0.3420609341339995   T   T   T
  0.2636891909394508  0.7219865641856693  0.4533413392382115   T   T   T
  0.7931034608284042  0.4497950695936337  0.4553195653411194   T   T   T
  0.1705838240255657  0.1781770004533642  0.4533355324253582   T   T   T
  0.6116871352398087  0.2312595098643219  0.4716159438784289   T   T   T
  0.9273826934999627  0.6594949099007703  0.3185421895682813   T   T   T
  0.1325366348362451  0.9218064754405497  0.3779045717115545   T   T   T
  0.3309841188230687  0.4265880463301012  0.3141935235621467   T   T   T
  0.7613158262090715  0.9664392261100957  0.3482490827058476   T   T   T
  0.1340941657048463  0.9481152845447589  0.4754971477337471   T   T   T
  0.7455472535566382  0.9990814179249181  0.4535997441891598   T   T   T
  0.5709978099897962  0.1540405015069134  0.3690880927517911   T   T   T
  0.2052506567993335  0.2123574572944695  0.3394470313334211   T   T   T
  0.1041822057532998  0.3987240919990422  0.3744172262881892   T   T   T
  0.8933323487530270  0.6578361536680026  0.4285294741076451   T   T   T
  0.3840354264774807  0.9206002624551644  0.4261664106465941   T   T   T
  0.2685373392860659  0.7198567424058616  0.3528545030800079   T   T   T
  0.8161447953403602  0.2155505345665694  0.4151844651785758   T   T   T
  0.4456621814180683  0.8736769324089662  0.3141498598217324   T   T   T
  0.4430456537716326  0.3683484235663578  0.4212134747900817   T   T   T
  0.2136650788263467  0.4088584799693425  0.4752557532747507   T   T   T
  0.6011964182801487  0.6371213675588387  0.4880453317044681   T   T   T
  0.6379299114306466  0.6504482201138431  0.3773513457648308   T   T   T
 
  0.00000000E+00  0.00000000E+00  0.00000000E+00
  0.00000000E+00  0.00000000E+00  0.00000000E+00
  0.00000000E+00  0.00000000E+00  0.00000000E+00
  0.00000000E+00  0.00000000E+00  0.00000000E+00
  0.00000000E+00  0.00000000E+00  0.00000000E+00
  0.00000000E+00  0.00000000E+00  0.00000000E+00
  0.00000000E+00  0.00000000E+00  0.00000000E+00
  0.00000000E+00  0.00000000E+00  0.00000000E+00
  0.00000000E+00  0.00000000E+00  0.00000000E+00
  0.00000000E+00  0.00000000E+00  0.00000000E+00
  0.00000000E+00  0.00000000E+00  0.00000000E+00
  0.00000000E+00  0.00000000E+00  0.00000000E+00
  0.00000000E+00  0.00000000E+00  0.00000000E+00
  0.00000000E+00  0.00000000E+00  0.00000000E+00
  0.00000000E+00  0.00000000E+00  0.00000000E+00
  0.00000000E+00  0.00000000E+00  0.00000000E+00
  0.00000000E+00  0.00000000E+00  0.00000000E+00
  0.00000000E+00  0.00000000E+00  0.00000000E+00
  0.00000000E+00  0.00000000E+00  0.00000000E+00
  0.00000000E+00  0.00000000E+00  0.00000000E+00
  0.00000000E+00  0.00000000E+00  0.00000000E+00
  0.00000000E+00  0.00000000E+00  0.00000000E+00
  0.00000000E+00  0.00000000E+00  0.00000000E+00
  0.00000000E+00  0.00000000E+00  0.00000000E+00
  0.00000000E+00  0.00000000E+00  0.00000000E+00
  0.00000000E+00  0.00000000E+00  0.00000000E+00
  0.00000000E+00  0.00000000E+00  0.00000000E+00
  0.00000000E+00  0.00000000E+00  0.00000000E+00
  0.00000000E+00  0.00000000E+00  0.00000000E+00
  0.00000000E+00  0.00000000E+00  0.00000000E+00
  0.00000000E+00  0.00000000E+00  0.00000000E+00
  0.00000000E+00  0.00000000E+00  0.00000000E+00
  0.00000000E+00  0.00000000E+00  0.00000000E+00
  0.00000000E+00  0.00000000E+00  0.00000000E+00
  0.00000000E+00  0.00000000E+00  0.00000000E+00
  0.00000000E+00  0.00000000E+00  0.00000000E+00
  0.00000000E+00  0.00000000E+00  0.00000000E+00
  0.00000000E+00  0.00000000E+00  0.00000000E+00
  0.00000000E+00  0.00000000E+00  0.00000000E+00
  0.00000000E+00  0.00000000E+00  0.00000000E+00
  0.00000000E+00  0.00000000E+00  0.00000000E+00
  0.00000000E+00  0.00000000E+00  0.00000000E+00
  0.00000000E+00  0.00000000E+00  0.00000000E+00
  0.00000000E+00  0.00000000E+00  0.00000000E+00
  0.00000000E+00  0.00000000E+00  0.00000000E+00
  0.00000000E+00  0.00000000E+00  0.00000000E+00
  0.00000000E+00  0.00000000E+00  0.00000000E+00
  0.00000000E+00  0.00000000E+00  0.00000000E+00
  0.00000000E+00  0.00000000E+00  0.00000000E+00
  0.00000000E+00  0.00000000E+00  0.00000000E+00
  0.00000000E+00  0.00000000E+00  0.00000000E+00
  0.00000000E+00  0.00000000E+00  0.00000000E+00
  0.00000000E+00  0.00000000E+00  0.00000000E+00
  0.00000000E+00  0.00000000E+00  0.00000000E+00
  0.00000000E+00  0.00000000E+00  0.00000000E+00
  0.00000000E+00  0.00000000E+00  0.00000000E+00
  0.00000000E+00  0.00000000E+00  0.00000000E+00
  0.00000000E+00  0.00000000E+00  0.00000000E+00
  0.00000000E+00  0.00000000E+00  0.00000000E+00
  0.00000000E+00  0.00000000E+00  0.00000000E+00
  0.00000000E+00  0.00000000E+00  0.00000000E+00
  0.00000000E+00  0.00000000E+00  0.00000000E+00
  0.00000000E+00  0.00000000E+00  0.00000000E+00
  0.00000000E+00  0.00000000E+00  0.00000000E+00
  0.00000000E+00  0.00000000E+00  0.00000000E+00
  0.00000000E+00  0.00000000E+00  0.00000000E+00
  0.00000000E+00  0.00000000E+00  0.00000000E+00
  0.00000000E+00  0.00000000E+00  0.00000000E+00
  0.00000000E+00  0.00000000E+00  0.00000000E+00
  0.00000000E+00  0.00000000E+00  0.00000000E+00
  0.00000000E+00  0.00000000E+00  0.00000000E+00
  0.00000000E+00  0.00000000E+00  0.00000000E+00
  0.00000000E+00  0.00000000E+00  0.00000000E+00
  0.00000000E+00  0.00000000E+00  0.00000000E+00
  0.00000000E+00  0.00000000E+00  0.00000000E+00
  0.00000000E+00  0.00000000E+00  0.00000000E+00
  0.00000000E+00  0.00000000E+00  0.00000000E+00
  0.00000000E+00  0.00000000E+00  0.00000000E+00
  0.00000000E+00  0.00000000E+00  0.00000000E+00
  0.00000000E+00  0.00000000E+00  0.00000000E+00
  0.00000000E+00  0.00000000E+00  0.00000000E+00
  0.00000000E+00  0.00000000E+00  0.00000000E+00
  0.00000000E+00  0.00000000E+00  0.00000000E+00
  0.00000000E+00  0.00000000E+00  0.00000000E+00
  0.00000000E+00  0.00000000E+00  0.00000000E+00
  0.00000000E+00  0.00000000E+00  0.00000000E+00
  0.00000000E+00  0.00000000E+00  0.00000000E+00
  0.00000000E+00  0.00000000E+00  0.00000000E+00
