Fe  Fe  H   O   S   Ni  Fe Co           
   1.00000000000000     
     5.6388600000000002    0.0000000000000000    0.0000000000000000
     0.0000000000000000   10.2679500000000008    0.0000000000000000
     0.0000000000000000    0.0000000000000000   41.0286899999999974
   Fe   Fe   H    O    S    Ni   Fe   Co
     6     6    12    24    16    22     1     1
Selective dynamics
Direct
  0.7497913152455820  0.1484828141155879  0.1197132281687652   T   T   T
  0.0309644235007056  0.6221312139163719  0.1430966927106548   T   T   T
  0.4363929181034292  0.1389935266834951  0.1798811958192311   T   T   T
  0.6869938171584327  0.6342494839098871  0.1990155048130111   T   T   T
  0.1135974977561402  0.1280260403069381  0.2351270440732603   T   T   T
  0.3868317354185071  0.6496854572492021  0.2607948325827008   T   T   T
  0.2490340899994562  0.3342560303566066  0.1201712794183463   T   T   T
  0.5331557440876384  0.8584503420091713  0.1428160249434748   T   T   T
  0.9342422584047313  0.3455393481148877  0.1809011564378410   T   T   T
  0.1884999953946864  0.8458869782482495  0.1977083411627176   T   T   T
  0.6150120526463930  0.3533518072268458  0.2396094014078877   T   T   T
  0.8840972744391259  0.8496788153509095  0.2589316751974354   T   T   T
  0.7696757593540589  0.3977990284958516  0.1220079615464952   T   T   T
  0.2696694300986618  0.0844888001381772  0.1216474429789049   T   T   T
  0.9551105779025746  0.9074663599995616  0.1258402575811987   T   T   T
  0.4547034851423957  0.5746585922599975  0.1261719533859504   T   T   T
  0.9588831620018851  0.0870333749944847  0.1789508514027774   T   T   T
  0.4706750651801523  0.4016187994206668  0.1799296500772720   T   T   T
  0.1667597985437883  0.5890419279312641  0.2006249913619956   T   T   T
  0.6614480184153488  0.8928045121032311  0.2000349316209283   T   T   T
  0.1746116266408584  0.4027083142022653  0.2521821911673393   T   T   T
  0.6617957122815082  0.0869818442219795  0.2454835985859559   T   T   T
  0.8550690746325581  0.5966483967359738  0.2563555572787418   T   T   T
  0.3522379069978213  0.9032076063905303  0.2561068631875967   T   T   T
  0.0597717844849215  0.1908170324306578  0.1084095151697552   T   T   T
  0.5594552775045545  0.2916540373080467  0.1086204005020066   T   T   T
  0.7985488907150199  0.9455372241790798  0.1214163482206576   T   T   T
  0.2979606982192250  0.5372284303505606  0.1215003984036187   T   T   T
  0.9150827946262203  0.4344460204196156  0.1334195254063127   T   T   T
  0.4136651252286073  0.0475147900982745  0.1333607773231046   T   T   T
  0.2044588440191596  0.7870459711079599  0.1509285221556969   T   T   T
  0.7054672589750937  0.6950867080837331  0.1509426525007501   T   T   T
  0.7610783535996930  0.1862283942146446  0.1677475223569892   T   T   T
  0.2602443475622984  0.2957326675090058  0.1679083001915460   T   T   T
  0.0293809472292286  0.5495508394359513  0.1880493709458539   T   T   T
  0.5222457387393040  0.9320387379991814  0.1876227779301424   T   T   T
  0.0991679933556006  0.0458066641951670  0.1909808955049137   T   T   T
  0.6103846709063468  0.4395126290758798  0.1918149702934387   T   T   T
  0.8649290197167782  0.7985685413720213  0.2129050884951215   T   T   T
  0.3636023031437677  0.6902092829110588  0.2134686338137308   T   T   T
  0.4417357697689333  0.1738887587822917  0.2284170469473827   T   T   T
  0.9561021485741051  0.2915657753001805  0.2277058987106859   T   T   T
  0.7048274256238536  0.5613588317270767  0.2462673439445117   T   T   T
  0.1984255527822870  0.9360630459234096  0.2459898279331408   T   T   T
  0.3216218972473641  0.4399845878684155  0.2617376638373440   T   T   T
  0.8127124578394868  0.0535947326179505  0.2565569968811302   T   T   T
  0.0565564380596762  0.6879060624985173  0.2719746280607154   T   T   T
  0.5574839522762187  0.8191504663784477  0.2715532707109399   T   T   T
  0.9700362917322567  0.3385003135057786  0.3177923683911417   T   T   T
  0.5100474583452176  0.6072921690330814  0.3188666169515991   T   T   T
  0.0490171957378538  0.8733830448831318  0.3243014521551394   T   T   T
  0.5300699933257040  0.1035002714355841  0.3227723009798193   T   T   T
  0.4454993889688847  0.3566813751895357  0.3726846413500552   T   T   T
  0.9981255658702760  0.5967750486340923  0.3688148482601714   T   T   T
  0.5128352980663858  0.8539367647101954  0.3780365192713627   T   T   T
  0.9980612846447727  0.1072491180604340  0.3779260739349991   T   T   T
  0.9677542208632608  0.3677679052226021  0.4275839443059645   T   T   T
  0.5284849954857681  0.6083381530966392  0.4287720242095829   T   T   T
  0.0099166497213685  0.8500141452433781  0.4284156692718478   T   T   T
  0.4980570563832483  0.1162950308647185  0.4289709135570843   T   T   T
  0.4207039552773847  0.3643368490686539  0.4930409061632308   T   T   T
  0.0266555557119657  0.6473538790718144  0.4980003280213555   T   T   T
  0.5030213126662377  0.8559738722147310  0.4837673012349819   T   T   T
  0.9854162488890159  0.1129718993190464  0.4803005251381328   T   T   T
  0.8776547583231554  0.1658772422055461  0.4261573405306663   T   T   T
  0.2759451354608521  0.7221346555677254  0.3485829582599058   T   T   T
  0.2731455364427239  0.7106088973541201  0.4578031481579555   T   T   T
  0.8365229643178695  0.1677703634148980  0.2946848518307560   T   T   T
  0.7051548776065271  0.4549143720532456  0.3436213917732175   T   T   T
  0.6144040694423939  0.1696070759859616  0.3758877255697836   T   T   T
  0.3356852948618672  0.4107664931969882  0.3104301944805659   T   T   T
  0.3826683331673870  0.9137661561286360  0.4271884052826113   T   T   T
  0.1372884792160474  0.9114848698327882  0.3773903499247059   T   T   T
  0.6338612850052028  0.6548639633230242  0.3777991827883085   T   T   T
  0.7424271057554573  0.9755293571282299  0.4551387003659937   T   T   T
  0.6767631363616258  0.6660099597987210  0.4774565999805941   T   T   T
  0.2289240489850961  0.2074859606061905  0.3425167832419218   T   T   T
  0.1046964760666722  0.4676800365736752  0.4730798096433979   T   T   T
  0.4563685033786287  0.8915912764725199  0.3142418641150909   T   T   T
  0.6644974815114459  0.4315913949005546  0.4560737948657915   T   T   T
  0.3124145691376108  0.4469196844145585  0.4169775906233223   T   T   T
  0.2405176718793969  0.2461112079542301  0.4545390797181977   T   T   T
  0.0587901197424330  0.3889725995316603  0.3708912770158639   T   T   T
  0.7708235390573672  0.9752030474117261  0.3501392666226051   T   T   T
  0.6379164956420789  0.2031568306084748  0.4757340891405159   T   T   T
  0.1289327058329598  0.9164757025299293  0.4782990193624198   T   T   T
  0.9498782591234979  0.6157735418610293  0.4261831392971560   T   T   T
  0.9059002524479063  0.6659888254228650  0.3155320010622136   T   T   T
 
  0.00000000E+00  0.00000000E+00  0.00000000E+00
  0.00000000E+00  0.00000000E+00  0.00000000E+00
  0.00000000E+00  0.00000000E+00  0.00000000E+00
  0.00000000E+00  0.00000000E+00  0.00000000E+00
  0.00000000E+00  0.00000000E+00  0.00000000E+00
  0.00000000E+00  0.00000000E+00  0.00000000E+00
  0.00000000E+00  0.00000000E+00  0.00000000E+00
  0.00000000E+00  0.00000000E+00  0.00000000E+00
  0.00000000E+00  0.00000000E+00  0.00000000E+00
  0.00000000E+00  0.00000000E+00  0.00000000E+00
  0.00000000E+00  0.00000000E+00  0.00000000E+00
  0.00000000E+00  0.00000000E+00  0.00000000E+00
  0.00000000E+00  0.00000000E+00  0.00000000E+00
  0.00000000E+00  0.00000000E+00  0.00000000E+00
  0.00000000E+00  0.00000000E+00  0.00000000E+00
  0.00000000E+00  0.00000000E+00  0.00000000E+00
  0.00000000E+00  0.00000000E+00  0.00000000E+00
  0.00000000E+00  0.00000000E+00  0.00000000E+00
  0.00000000E+00  0.00000000E+00  0.00000000E+00
  0.00000000E+00  0.00000000E+00  0.00000000E+00
  0.00000000E+00  0.00000000E+00  0.00000000E+00
  0.00000000E+00  0.00000000E+00  0.00000000E+00
  0.00000000E+00  0.00000000E+00  0.00000000E+00
  0.00000000E+00  0.00000000E+00  0.00000000E+00
  0.00000000E+00  0.00000000E+00  0.00000000E+00
  0.00000000E+00  0.00000000E+00  0.00000000E+00
  0.00000000E+00  0.00000000E+00  0.00000000E+00
  0.00000000E+00  0.00000000E+00  0.00000000E+00
  0.00000000E+00  0.00000000E+00  0.00000000E+00
  0.00000000E+00  0.00000000E+00  0.00000000E+00
  0.00000000E+00  0.00000000E+00  0.00000000E+00
  0.00000000E+00  0.00000000E+00  0.00000000E+00
  0.00000000E+00  0.00000000E+00  0.00000000E+00
  0.00000000E+00  0.00000000E+00  0.00000000E+00
  0.00000000E+00  0.00000000E+00  0.00000000E+00
  0.00000000E+00  0.00000000E+00  0.00000000E+00
  0.00000000E+00  0.00000000E+00  0.00000000E+00
  0.00000000E+00  0.00000000E+00  0.00000000E+00
  0.00000000E+00  0.00000000E+00  0.00000000E+00
  0.00000000E+00  0.00000000E+00  0.00000000E+00
  0.00000000E+00  0.00000000E+00  0.00000000E+00
  0.00000000E+00  0.00000000E+00  0.00000000E+00
  0.00000000E+00  0.00000000E+00  0.00000000E+00
  0.00000000E+00  0.00000000E+00  0.00000000E+00
  0.00000000E+00  0.00000000E+00  0.00000000E+00
  0.00000000E+00  0.00000000E+00  0.00000000E+00
  0.00000000E+00  0.00000000E+00  0.00000000E+00
  0.00000000E+00  0.00000000E+00  0.00000000E+00
  0.00000000E+00  0.00000000E+00  0.00000000E+00
  0.00000000E+00  0.00000000E+00  0.00000000E+00
  0.00000000E+00  0.00000000E+00  0.00000000E+00
  0.00000000E+00  0.00000000E+00  0.00000000E+00
  0.00000000E+00  0.00000000E+00  0.00000000E+00
  0.00000000E+00  0.00000000E+00  0.00000000E+00
  0.00000000E+00  0.00000000E+00  0.00000000E+00
  0.00000000E+00  0.00000000E+00  0.00000000E+00
  0.00000000E+00  0.00000000E+00  0.00000000E+00
  0.00000000E+00  0.00000000E+00  0.00000000E+00
  0.00000000E+00  0.00000000E+00  0.00000000E+00
  0.00000000E+00  0.00000000E+00  0.00000000E+00
  0.00000000E+00  0.00000000E+00  0.00000000E+00
  0.00000000E+00  0.00000000E+00  0.00000000E+00
  0.00000000E+00  0.00000000E+00  0.00000000E+00
  0.00000000E+00  0.00000000E+00  0.00000000E+00
  0.00000000E+00  0.00000000E+00  0.00000000E+00
  0.00000000E+00  0.00000000E+00  0.00000000E+00
  0.00000000E+00  0.00000000E+00  0.00000000E+00
  0.00000000E+00  0.00000000E+00  0.00000000E+00
  0.00000000E+00  0.00000000E+00  0.00000000E+00
  0.00000000E+00  0.00000000E+00  0.00000000E+00
  0.00000000E+00  0.00000000E+00  0.00000000E+00
  0.00000000E+00  0.00000000E+00  0.00000000E+00
  0.00000000E+00  0.00000000E+00  0.00000000E+00
  0.00000000E+00  0.00000000E+00  0.00000000E+00
  0.00000000E+00  0.00000000E+00  0.00000000E+00
  0.00000000E+00  0.00000000E+00  0.00000000E+00
  0.00000000E+00  0.00000000E+00  0.00000000E+00
  0.00000000E+00  0.00000000E+00  0.00000000E+00
  0.00000000E+00  0.00000000E+00  0.00000000E+00
  0.00000000E+00  0.00000000E+00  0.00000000E+00
  0.00000000E+00  0.00000000E+00  0.00000000E+00
  0.00000000E+00  0.00000000E+00  0.00000000E+00
  0.00000000E+00  0.00000000E+00  0.00000000E+00
  0.00000000E+00  0.00000000E+00  0.00000000E+00
  0.00000000E+00  0.00000000E+00  0.00000000E+00
  0.00000000E+00  0.00000000E+00  0.00000000E+00
  0.00000000E+00  0.00000000E+00  0.00000000E+00
  0.00000000E+00  0.00000000E+00  0.00000000E+00
