Fe  Fe  H   O   S   Ni  Fe Co           
   1.00000000000000     
     5.6388600000000002    0.0000000000000000    0.0000000000000000
     0.0000000000000000   10.2679500000000008    0.0000000000000000
     0.0000000000000000    0.0000000000000000   41.0286899999999974
   Fe   Fe   H    O    S    Ni   Fe   Co
     6     6    12    24    16    22     1     1
Selective dynamics
Direct
  0.7500290759807678  0.1517602504005571  0.1194433333087339   T   T   T
  0.0298632001339255  0.6249204964937847  0.1428234834411487   T   T   T
  0.4401085613732069  0.1429088413665662  0.1798397572319260   T   T   T
  0.6893770987544998  0.6368250733448073  0.1991964714144694   T   T   T
  0.1204636170325393  0.1313930952093728  0.2349471058695848   T   T   T
  0.3825323760418570  0.6512668304298759  0.2608059900295312   T   T   T
  0.2498722368815957  0.3371381334436071  0.1199780736170053   T   T   T
  0.5336066754872786  0.8615468579702685  0.1426679415326085   T   T   T
  0.9366184499701713  0.3485254515832664  0.1808382069282263   T   T   T
  0.1907298450029143  0.8483023305709244  0.1975515171893035   T   T   T
  0.6202206588645736  0.3576157850862305  0.2397418392388139   T   T   T
  0.8897432723354171  0.8471268992290281  0.2587827322366608   T   T   T
  0.7696508995959954  0.4005758856242568  0.1218256743514358   T   T   T
  0.2697589329743213  0.0880305403227845  0.1217967553621923   T   T   T
  0.9545987392684313  0.9113798201902512  0.1253163846125983   T   T   T
  0.4535826201821737  0.5773176074520052  0.1259427495082667   T   T   T
  0.9633641532726988  0.0910139215984196  0.1788707147058122   T   T   T
  0.4717946225223144  0.4049159110124902  0.1801672402613070   T   T   T
  0.1670707103691415  0.5923607512945220  0.2002798526529031   T   T   T
  0.6639432950692159  0.8959331645552839  0.1999560372406989   T   T   T
  0.1789680327916581  0.4068978628655034  0.2530466835502129   T   T   T
  0.6762613481222254  0.0912325416924368  0.2480854622601544   T   T   T
  0.8514273633062138  0.6000807469734861  0.2582153059691548   T   T   T
  0.3587122323059918  0.9049539886540554  0.2551615842312811   T   T   T
  0.0611653678231274  0.1931462086591008  0.1084750725844009   T   T   T
  0.5594950047564223  0.2944090970942506  0.1080847901132295   T   T   T
  0.7975899005082092  0.9490561168826689  0.1210509759419527   T   T   T
  0.2971987317480623  0.5396651135487639  0.1211586935488825   T   T   T
  0.9147496366837651  0.4371684129866212  0.1332876474873358   T   T   T
  0.4141761388083968  0.0508633357278915  0.1334288456493294   T   T   T
  0.2050998737056801  0.7890753627798169  0.1509632225417694   T   T   T
  0.7054852008107174  0.6985229927058454  0.1509069160397645   T   T   T
  0.7627476318691733  0.1902763268311188  0.1673745410538318   T   T   T
  0.2636666332706297  0.2998961909386986  0.1677942754372150   T   T   T
  0.0290723965882703  0.5528228231066888  0.1877653775351920   T   T   T
  0.5257978898833203  0.9351275896295173  0.1874681430875040   T   T   T
  0.1031746283830093  0.0499458414071121  0.1909548511370676   T   T   T
  0.6119074613392017  0.4429161734191600  0.1919792588629977   T   T   T
  0.8685019208916170  0.7997438237882640  0.2126916088193875   T   T   T
  0.3621239433346765  0.6915508942854768  0.2136300631288236   T   T   T
  0.4471378636982914  0.1785934007200652  0.2285047662228193   T   T   T
  0.9590676249607086  0.2930718250241961  0.2272895804823109   T   T   T
  0.7070937039191116  0.5648229253626961  0.2466717767203875   T   T   T
  0.2023856735874812  0.9375365761526726  0.2455802732046124   T   T   T
  0.3263943639803540  0.4445312912338792  0.2622781882522620   T   T   T
  0.8279489201731447  0.0566712426340466  0.2581957591596264   T   T   T
  0.0543275787007179  0.6926586670608553  0.2744092095793852   T   T   T
  0.5623257786709883  0.8193928906261501  0.2693735194518098   T   T   T
  0.9535168764837892  0.3401012141208498  0.3112507052442888   T   T   T
  0.5103641423876395  0.6189544385839794  0.3209470029510949   T   T   T
  0.0473011942759096  0.8753018998169765  0.3272602142491718   T   T   T
  0.4800567820256251  0.0800960862527722  0.3171316501880133   T   T   T
  0.4725042498170695  0.3406848522187271  0.3643949958516626   T   T   T
  0.9931962219131063  0.5997280242677181  0.3741007921230990   T   T   T
  0.5088809455676723  0.8549593168407319  0.3809826498790255   T   T   T
  0.9792548678249933  0.1171624730442450  0.3773622315805378   T   T   T
  0.0461702508263813  0.3602966244849005  0.4218080551648658   T   T   T
  0.5018157661153406  0.5722044127116395  0.4254297577848230   T   T   T
  0.9965419407456046  0.8608562857068200  0.4297616160841036   T   T   T
  0.4747830353612431  0.1294995601876914  0.4405906647903609   T   T   T
  0.5206923011549582  0.4079144449776599  0.4949303303715716   T   T   T
  0.9682498744931177  0.6090433431707133  0.4792013491072972   T   T   T
  0.4900391829920661  0.8390912862875349  0.4792564231880443   T   T   T
  0.9776920408565543  0.0955269310181645  0.4941837905494588   T   T   T
  0.3250975643953793  0.4220043191033023  0.3114196013491257   T   T   T
  0.7359387398539944  0.4645806068208563  0.3411612435235373   T   T   T
  0.7487392437155759  0.9812892589673172  0.3502953115117669   T   T   T
  0.1332229582490130  0.9163236223822365  0.4782644598962124   T   T   T
  0.6293297248204943  0.6524288865780647  0.3768973930278187   T   T   T
  0.6852510001417622  0.2230587765370341  0.4799665201009953   T   T   T
  0.8684823122985768  0.6528787787338917  0.4266448653684159   T   T   T
  0.1012804278077680  0.4019029021400746  0.3694374904631508   T   T   T
  0.2398475736831995  0.7134957483906805  0.4511595546527766   T   T   T
  0.4610934128521065  0.8625660938140401  0.3134596185712895   T   T   T
  0.9054016760239557  0.6756884243933375  0.3207038164149472   T   T   T
  0.1979554652246481  0.2088767444568843  0.3368074231987891   T   T   T
  0.1642994494371146  0.2290638015031465  0.4618218332816269   T   T   T
  0.2301103419430481  0.4684485980684816  0.4633965941250189   T   T   T
  0.5875713098648496  0.6253613153454073  0.4788017367600206   T   T   T
  0.7491170553187374  0.9866024861025561  0.4587039015333334   T   T   T
  0.2625581128277073  0.7244969518514494  0.3532704114966240   T   T   T
  0.8033016584567854  0.2047286512764376  0.4193040768097959   T   T   T
  0.1287585454894816  0.9234155433924950  0.3793672855470330   T   T   T
  0.4324450594384401  0.3553838610470113  0.4179241355869265   T   T   T
  0.3877016163775531  0.9215523697260829  0.4286333768513795   T   T   T
  0.7815333062840404  0.4375647353450748  0.4531770463328483   T   T   T
  0.4622454131926945  0.1157443332324112  0.3815238176962323   T   T   T
  0.8557724737277913  0.1299670871312461  0.3034640040069855   T   T   T
 
  0.00000000E+00  0.00000000E+00  0.00000000E+00
  0.00000000E+00  0.00000000E+00  0.00000000E+00
  0.00000000E+00  0.00000000E+00  0.00000000E+00
  0.00000000E+00  0.00000000E+00  0.00000000E+00
  0.00000000E+00  0.00000000E+00  0.00000000E+00
  0.00000000E+00  0.00000000E+00  0.00000000E+00
  0.00000000E+00  0.00000000E+00  0.00000000E+00
  0.00000000E+00  0.00000000E+00  0.00000000E+00
  0.00000000E+00  0.00000000E+00  0.00000000E+00
  0.00000000E+00  0.00000000E+00  0.00000000E+00
  0.00000000E+00  0.00000000E+00  0.00000000E+00
  0.00000000E+00  0.00000000E+00  0.00000000E+00
  0.00000000E+00  0.00000000E+00  0.00000000E+00
  0.00000000E+00  0.00000000E+00  0.00000000E+00
  0.00000000E+00  0.00000000E+00  0.00000000E+00
  0.00000000E+00  0.00000000E+00  0.00000000E+00
  0.00000000E+00  0.00000000E+00  0.00000000E+00
  0.00000000E+00  0.00000000E+00  0.00000000E+00
  0.00000000E+00  0.00000000E+00  0.00000000E+00
  0.00000000E+00  0.00000000E+00  0.00000000E+00
  0.00000000E+00  0.00000000E+00  0.00000000E+00
  0.00000000E+00  0.00000000E+00  0.00000000E+00
  0.00000000E+00  0.00000000E+00  0.00000000E+00
  0.00000000E+00  0.00000000E+00  0.00000000E+00
  0.00000000E+00  0.00000000E+00  0.00000000E+00
  0.00000000E+00  0.00000000E+00  0.00000000E+00
  0.00000000E+00  0.00000000E+00  0.00000000E+00
  0.00000000E+00  0.00000000E+00  0.00000000E+00
  0.00000000E+00  0.00000000E+00  0.00000000E+00
  0.00000000E+00  0.00000000E+00  0.00000000E+00
  0.00000000E+00  0.00000000E+00  0.00000000E+00
  0.00000000E+00  0.00000000E+00  0.00000000E+00
  0.00000000E+00  0.00000000E+00  0.00000000E+00
  0.00000000E+00  0.00000000E+00  0.00000000E+00
  0.00000000E+00  0.00000000E+00  0.00000000E+00
  0.00000000E+00  0.00000000E+00  0.00000000E+00
  0.00000000E+00  0.00000000E+00  0.00000000E+00
  0.00000000E+00  0.00000000E+00  0.00000000E+00
  0.00000000E+00  0.00000000E+00  0.00000000E+00
  0.00000000E+00  0.00000000E+00  0.00000000E+00
  0.00000000E+00  0.00000000E+00  0.00000000E+00
  0.00000000E+00  0.00000000E+00  0.00000000E+00
  0.00000000E+00  0.00000000E+00  0.00000000E+00
  0.00000000E+00  0.00000000E+00  0.00000000E+00
  0.00000000E+00  0.00000000E+00  0.00000000E+00
  0.00000000E+00  0.00000000E+00  0.00000000E+00
  0.00000000E+00  0.00000000E+00  0.00000000E+00
  0.00000000E+00  0.00000000E+00  0.00000000E+00
  0.00000000E+00  0.00000000E+00  0.00000000E+00
  0.00000000E+00  0.00000000E+00  0.00000000E+00
  0.00000000E+00  0.00000000E+00  0.00000000E+00
  0.00000000E+00  0.00000000E+00  0.00000000E+00
  0.00000000E+00  0.00000000E+00  0.00000000E+00
  0.00000000E+00  0.00000000E+00  0.00000000E+00
  0.00000000E+00  0.00000000E+00  0.00000000E+00
  0.00000000E+00  0.00000000E+00  0.00000000E+00
  0.00000000E+00  0.00000000E+00  0.00000000E+00
  0.00000000E+00  0.00000000E+00  0.00000000E+00
  0.00000000E+00  0.00000000E+00  0.00000000E+00
  0.00000000E+00  0.00000000E+00  0.00000000E+00
  0.00000000E+00  0.00000000E+00  0.00000000E+00
  0.00000000E+00  0.00000000E+00  0.00000000E+00
  0.00000000E+00  0.00000000E+00  0.00000000E+00
  0.00000000E+00  0.00000000E+00  0.00000000E+00
  0.00000000E+00  0.00000000E+00  0.00000000E+00
  0.00000000E+00  0.00000000E+00  0.00000000E+00
  0.00000000E+00  0.00000000E+00  0.00000000E+00
  0.00000000E+00  0.00000000E+00  0.00000000E+00
  0.00000000E+00  0.00000000E+00  0.00000000E+00
  0.00000000E+00  0.00000000E+00  0.00000000E+00
  0.00000000E+00  0.00000000E+00  0.00000000E+00
  0.00000000E+00  0.00000000E+00  0.00000000E+00
  0.00000000E+00  0.00000000E+00  0.00000000E+00
  0.00000000E+00  0.00000000E+00  0.00000000E+00
  0.00000000E+00  0.00000000E+00  0.00000000E+00
  0.00000000E+00  0.00000000E+00  0.00000000E+00
  0.00000000E+00  0.00000000E+00  0.00000000E+00
  0.00000000E+00  0.00000000E+00  0.00000000E+00
  0.00000000E+00  0.00000000E+00  0.00000000E+00
  0.00000000E+00  0.00000000E+00  0.00000000E+00
  0.00000000E+00  0.00000000E+00  0.00000000E+00
  0.00000000E+00  0.00000000E+00  0.00000000E+00
  0.00000000E+00  0.00000000E+00  0.00000000E+00
  0.00000000E+00  0.00000000E+00  0.00000000E+00
  0.00000000E+00  0.00000000E+00  0.00000000E+00
  0.00000000E+00  0.00000000E+00  0.00000000E+00
  0.00000000E+00  0.00000000E+00  0.00000000E+00
  0.00000000E+00  0.00000000E+00  0.00000000E+00
