Fe  Fe  H   O   S   Ni  Fe Co           
   1.00000000000000     
     5.6388600000000002    0.0000000000000000    0.0000000000000000
     0.0000000000000000   10.2679500000000008    0.0000000000000000
     0.0000000000000000    0.0000000000000000   41.0286899999999974
   Fe   Fe   H    O    S    Ni   Fe   Co
     6     6    12    24    16    22     1     1
Selective dynamics
Direct
  0.7397303157635193  0.1505403128846529  0.1196150217365546   T   T   T
  0.0251179368611419  0.6239889209688331  0.1432747887433332   T   T   T
  0.4252281747007728  0.1408538463609135  0.1796996529297263   T   T   T
  0.6815843889189113  0.6361117677001710  0.1994350016643850   T   T   T
  0.1007694137112122  0.1289913612508982  0.2348097245411002   T   T   T
  0.3785356247342220  0.6522544189448973  0.2610457431662703   T   T   T
  0.2390891444020530  0.3355654054587604  0.1200005769608683   T   T   T
  0.5271519409350810  0.8602223426738678  0.1430190116226978   T   T   T
  0.9245105386277226  0.3468430893437277  0.1808515325730039   T   T   T
  0.1814706212958366  0.8473312425162548  0.1979336301604813   T   T   T
  0.6078168733759995  0.3549995603000664  0.2399051863352491   T   T   T
  0.8751440098369077  0.8483142921728005  0.2592437903035850   T   T   T
  0.7605312454474380  0.4007285391431734  0.1219245701029675   T   T   T
  0.2598769399550306  0.0845790225071992  0.1215709114471283   T   T   T
  0.9493014308299592  0.9109870180934372  0.1260926096893646   T   T   T
  0.4488531044059170  0.5749260522962917  0.1264405508966381   T   T   T
  0.9493290008247294  0.0872289391105054  0.1786211378607092   T   T   T
  0.4627654484155553  0.4041604717587940  0.1802429741205501   T   T   T
  0.1587291526145056  0.5901354980564535  0.2009056399833934   T   T   T
  0.6538316599624244  0.8948591676169488  0.2003492290320651   T   T   T
  0.1707921419460159  0.4076212342667543  0.2547688048540487   T   T   T
  0.6453230259014263  0.0853408820903495  0.2438812719738779   T   T   T
  0.8451171900968869  0.5997700279947986  0.2576758921327493   T   T   T
  0.3411260672673719  0.9050108296785490  0.2563541167325454   T   T   T
  0.0484534886202282  0.1934250762322436  0.1080504676726336   T   T   T
  0.5478146404023292  0.2918936874555978  0.1081143408660690   T   T   T
  0.7922530301044706  0.9484146070395747  0.1217452824831383   T   T   T
  0.2920646738740181  0.5376862321471321  0.1217725261635119   T   T   T
  0.9048309955242140  0.4370920958110635  0.1334839847003984   T   T   T
  0.4033369131222400  0.0477989018976544  0.1332957420491586   T   T   T
  0.2010486666076505  0.7876165772888094  0.1512103661463562   T   T   T
  0.7020372794175427  0.6983709060880142  0.1511918825094239   T   T   T
  0.7499401013145706  0.1885388529501179  0.1676075533979792   T   T   T
  0.2498054123818575  0.2970632869789833  0.1676816322424638   T   T   T
  0.0216391902257795  0.5510779261491412  0.1882394473411280   T   T   T
  0.5150295492969122  0.9335283980885164  0.1878607596541075   T   T   T
  0.0899032473965749  0.0465685950771490  0.1906184443763524   T   T   T
  0.6025561364487098  0.4414512818141440  0.1921536054452369   T   T   T
  0.8588283964734292  0.7989751440096430  0.2131308105207307   T   T   T
  0.3556047867763589  0.6914631268506080  0.2140254420075348   T   T   T
  0.4280781158741030  0.1762287238402000  0.2280248343183094   T   T   T
  0.9451578862947563  0.2925075877552958  0.2275321122913034   T   T   T
  0.6974094425810596  0.5651283156891520  0.2467571922557028   T   T   T
  0.1872176848578933  0.9376210920619339  0.2461563473981121   T   T   T
  0.3214767606930943  0.4446166894719099  0.2629475829102460   T   T   T
  0.7962917569456047  0.0518004610102921  0.2550234840505390   T   T   T
  0.0483559558179667  0.6903708083620225  0.2731980821049630   T   T   T
  0.5462515155529973  0.8197946002802653  0.2712110655270589   T   T   T
  0.9826150642085094  0.3287974816359567  0.3153592130069346   T   T   T
  0.5252847985829787  0.6116603933204717  0.3204923403346429   T   T   T
  0.0536854944361970  0.8729307546670969  0.3250568059612746   T   T   T
  0.5246505544418721  0.0975969605781925  0.3229489871383305   T   T   T
  0.4761581035789921  0.3591933465064624  0.3666217743445261   T   T   T
  0.0082142691863421  0.5958664028170206  0.3721532493229244   T   T   T
  0.5137599133449317  0.8508759655090087  0.3783137053913099   T   T   T
  0.9835711173907411  0.1152100927664163  0.3781138918870947   T   T   T
  0.0177079014480440  0.3683148373734937  0.4294612573575893   T   T   T
  0.5264091924176549  0.5991114065370936  0.4276221029752523   T   T   T
  0.9964224120711732  0.8510443536879335  0.4263868714999963   T   T   T
  0.4807973367459240  0.1085513560803298  0.4277642355137780   T   T   T
  0.5177908814615458  0.3653943736199954  0.4889016432783178   T   T   T
  0.0174103234938836  0.6157722768470402  0.4933820579959560   T   T   T
  0.4569535224138066  0.8732984156271716  0.4829624960816785   T   T   T
  0.9706456888960768  0.1010338472316816  0.4817037083014606   T   T   T
  0.0853961345460161  0.9006672818883313  0.4776128759603087   T   T   T
  0.2519064695417556  0.7033714815984761  0.4551002821024036   T   T   T
  0.1447283907401527  0.9220528147096242  0.3770087191024643   T   T   T
  0.7585205836234502  0.4624528728825729  0.3414395447830035   T   T   T
  0.2121309769841333  0.4582484057073520  0.4706538326409329   T   T   T
  0.7744565803619510  0.9747145722596532  0.3501784019232308   T   T   T
  0.3506599627321578  0.4124588208655471  0.3118044136432269   T   T   T
  0.3664453816772141  0.9067229355946180  0.4271510507951756   T   T   T
  0.8537784611298773  0.1766753023340805  0.4261451041202619   T   T   T
  0.9129158872278189  0.6727666664763354  0.3183232045912552   T   T   T
  0.9052002618097068  0.6505559306294919  0.4215335091655343   T   T   T
  0.2713534941945974  0.7205913510707037  0.3499375972330792   T   T   T
  0.6173413266915785  0.1743938493535483  0.4774455168796636   T   T   T
  0.4608635344814893  0.8835924913799751  0.3149729956043554   T   T   T
  0.2277195417397188  0.2238278601683936  0.4559587554968860   T   T   T
  0.7285641902997222  0.9700637876328814  0.4528824975667529   T   T   T
  0.2254591758973372  0.2075671353587846  0.3439084992482087   T   T   T
  0.6029160470037618  0.1641478650829040  0.3752576959768703   T   T   T
  0.0996902275541439  0.3949708095101813  0.3774291592943345   T   T   T
  0.7851636425029479  0.4821321383323962  0.4609355239739243   T   T   T
  0.8115780065857725  0.1687757536964309  0.2923607688932468   T   T   T
  0.6352265785179489  0.6502384399679687  0.3743756121981498   T   T   T
  0.5069924596158749  0.3646556149512589  0.4237579751315482   T   T   T
  0.6808510929871904  0.7036393362045525  0.4766837652883667   T   T   T
 
  0.00000000E+00  0.00000000E+00  0.00000000E+00
  0.00000000E+00  0.00000000E+00  0.00000000E+00
  0.00000000E+00  0.00000000E+00  0.00000000E+00
  0.00000000E+00  0.00000000E+00  0.00000000E+00
  0.00000000E+00  0.00000000E+00  0.00000000E+00
  0.00000000E+00  0.00000000E+00  0.00000000E+00
  0.00000000E+00  0.00000000E+00  0.00000000E+00
  0.00000000E+00  0.00000000E+00  0.00000000E+00
  0.00000000E+00  0.00000000E+00  0.00000000E+00
  0.00000000E+00  0.00000000E+00  0.00000000E+00
  0.00000000E+00  0.00000000E+00  0.00000000E+00
  0.00000000E+00  0.00000000E+00  0.00000000E+00
  0.00000000E+00  0.00000000E+00  0.00000000E+00
  0.00000000E+00  0.00000000E+00  0.00000000E+00
  0.00000000E+00  0.00000000E+00  0.00000000E+00
  0.00000000E+00  0.00000000E+00  0.00000000E+00
  0.00000000E+00  0.00000000E+00  0.00000000E+00
  0.00000000E+00  0.00000000E+00  0.00000000E+00
  0.00000000E+00  0.00000000E+00  0.00000000E+00
  0.00000000E+00  0.00000000E+00  0.00000000E+00
  0.00000000E+00  0.00000000E+00  0.00000000E+00
  0.00000000E+00  0.00000000E+00  0.00000000E+00
  0.00000000E+00  0.00000000E+00  0.00000000E+00
  0.00000000E+00  0.00000000E+00  0.00000000E+00
  0.00000000E+00  0.00000000E+00  0.00000000E+00
  0.00000000E+00  0.00000000E+00  0.00000000E+00
  0.00000000E+00  0.00000000E+00  0.00000000E+00
  0.00000000E+00  0.00000000E+00  0.00000000E+00
  0.00000000E+00  0.00000000E+00  0.00000000E+00
  0.00000000E+00  0.00000000E+00  0.00000000E+00
  0.00000000E+00  0.00000000E+00  0.00000000E+00
  0.00000000E+00  0.00000000E+00  0.00000000E+00
  0.00000000E+00  0.00000000E+00  0.00000000E+00
  0.00000000E+00  0.00000000E+00  0.00000000E+00
  0.00000000E+00  0.00000000E+00  0.00000000E+00
  0.00000000E+00  0.00000000E+00  0.00000000E+00
  0.00000000E+00  0.00000000E+00  0.00000000E+00
  0.00000000E+00  0.00000000E+00  0.00000000E+00
  0.00000000E+00  0.00000000E+00  0.00000000E+00
  0.00000000E+00  0.00000000E+00  0.00000000E+00
  0.00000000E+00  0.00000000E+00  0.00000000E+00
  0.00000000E+00  0.00000000E+00  0.00000000E+00
  0.00000000E+00  0.00000000E+00  0.00000000E+00
  0.00000000E+00  0.00000000E+00  0.00000000E+00
  0.00000000E+00  0.00000000E+00  0.00000000E+00
  0.00000000E+00  0.00000000E+00  0.00000000E+00
  0.00000000E+00  0.00000000E+00  0.00000000E+00
  0.00000000E+00  0.00000000E+00  0.00000000E+00
  0.00000000E+00  0.00000000E+00  0.00000000E+00
  0.00000000E+00  0.00000000E+00  0.00000000E+00
  0.00000000E+00  0.00000000E+00  0.00000000E+00
  0.00000000E+00  0.00000000E+00  0.00000000E+00
  0.00000000E+00  0.00000000E+00  0.00000000E+00
  0.00000000E+00  0.00000000E+00  0.00000000E+00
  0.00000000E+00  0.00000000E+00  0.00000000E+00
  0.00000000E+00  0.00000000E+00  0.00000000E+00
  0.00000000E+00  0.00000000E+00  0.00000000E+00
  0.00000000E+00  0.00000000E+00  0.00000000E+00
  0.00000000E+00  0.00000000E+00  0.00000000E+00
  0.00000000E+00  0.00000000E+00  0.00000000E+00
  0.00000000E+00  0.00000000E+00  0.00000000E+00
  0.00000000E+00  0.00000000E+00  0.00000000E+00
  0.00000000E+00  0.00000000E+00  0.00000000E+00
  0.00000000E+00  0.00000000E+00  0.00000000E+00
  0.00000000E+00  0.00000000E+00  0.00000000E+00
  0.00000000E+00  0.00000000E+00  0.00000000E+00
  0.00000000E+00  0.00000000E+00  0.00000000E+00
  0.00000000E+00  0.00000000E+00  0.00000000E+00
  0.00000000E+00  0.00000000E+00  0.00000000E+00
  0.00000000E+00  0.00000000E+00  0.00000000E+00
  0.00000000E+00  0.00000000E+00  0.00000000E+00
  0.00000000E+00  0.00000000E+00  0.00000000E+00
  0.00000000E+00  0.00000000E+00  0.00000000E+00
  0.00000000E+00  0.00000000E+00  0.00000000E+00
  0.00000000E+00  0.00000000E+00  0.00000000E+00
  0.00000000E+00  0.00000000E+00  0.00000000E+00
  0.00000000E+00  0.00000000E+00  0.00000000E+00
  0.00000000E+00  0.00000000E+00  0.00000000E+00
  0.00000000E+00  0.00000000E+00  0.00000000E+00
  0.00000000E+00  0.00000000E+00  0.00000000E+00
  0.00000000E+00  0.00000000E+00  0.00000000E+00
  0.00000000E+00  0.00000000E+00  0.00000000E+00
  0.00000000E+00  0.00000000E+00  0.00000000E+00
  0.00000000E+00  0.00000000E+00  0.00000000E+00
  0.00000000E+00  0.00000000E+00  0.00000000E+00
  0.00000000E+00  0.00000000E+00  0.00000000E+00
  0.00000000E+00  0.00000000E+00  0.00000000E+00
  0.00000000E+00  0.00000000E+00  0.00000000E+00
