Fe  Fe  H   O   S   Ni  Fe Co           
   1.00000000000000     
     5.6388600000000002    0.0000000000000000    0.0000000000000000
     0.0000000000000000   10.2679500000000008    0.0000000000000000
     0.0000000000000000    0.0000000000000000   41.0286899999999974
   Fe   Fe   H    O    S    Ni   Fe   Co
     6     6    12    24    16    22     1     1
Selective dynamics
Direct
  0.7380868975248109  0.1510225321553031  0.1197921737997843   T   T   T
  0.0236019445111204  0.6247847739352602  0.1436932893230674   T   T   T
  0.4231881806658430  0.1408734981338098  0.1799763082562744   T   T   T
  0.6785002690027907  0.6368141506846802  0.1996614139944337   T   T   T
  0.0978051005957707  0.1290778962521485  0.2351886090636119   T   T   T
  0.3777888744809074  0.6521365628241210  0.2615053100688740   T   T   T
  0.2378314365355482  0.3359238394753798  0.1202113678495881   T   T   T
  0.5246349908693839  0.8609642576842894  0.1433941524215556   T   T   T
  0.9226634601213741  0.3470686890179191  0.1810538842481086   T   T   T
  0.1791521181472441  0.8477334553032323  0.1985975100345538   T   T   T
  0.6025730671565067  0.3547643656503701  0.2395690670922548   T   T   T
  0.8713048237061265  0.8469978566986036  0.2600914714886813   T   T   T
  0.7599100246464614  0.4016831065667421  0.1221474233066616   T   T   T
  0.2574496831200853  0.0854011490292300  0.1217498069634690   T   T   T
  0.9461745946157337  0.9116140250493088  0.1263049854280388   T   T   T
  0.4469688841392361  0.5757494776277675  0.1267211600756290   T   T   T
  0.9470198811906156  0.0869920422141000  0.1789401109805735   T   T   T
  0.4611914943846203  0.4043568352820920  0.1800663337157957   T   T   T
  0.1560310312324290  0.5903306275570575  0.2014052775274034   T   T   T
  0.6526747662526509  0.8958539650611325  0.2007233372606270   T   T   T
  0.1641222875554986  0.4049700536755032  0.2534650498657978   T   T   T
  0.6426918035433529  0.0858025164604735  0.2443057506517013   T   T   T
  0.8431695467298918  0.5975948292068507  0.2572410960013671   T   T   T
  0.3376216121589203  0.9056618602500314  0.2572470532843763   T   T   T
  0.0473445391578495  0.1936411808676035  0.1082020121008715   T   T   T
  0.5464283935859133  0.2923445421148259  0.1081492852183883   T   T   T
  0.7891379339897218  0.9488818096882941  0.1218533696581630   T   T   T
  0.2901777391461278  0.5384329313114254  0.1221374565145942   T   T   T
  0.9043917859860204  0.4375030254329200  0.1337345262537832   T   T   T
  0.4005629891015040  0.0484858412122010  0.1335861658438770   T   T   T
  0.1988261991437082  0.7880688916606386  0.1518235129148114   T   T   T
  0.7005682930064769  0.6993504604622978  0.1515350259482873   T   T   T
  0.7482578752564421  0.1888719846098370  0.1677889500643269   T   T   T
  0.2478222033672372  0.2973263726100900  0.1679542403464171   T   T   T
  0.0197091155038996  0.5517442394814642  0.1886077931045835   T   T   T
  0.5142092551691189  0.9346311596662820  0.1881559343966734   T   T   T
  0.0872703991521741  0.0463914649897248  0.1910029562583552   T   T   T
  0.6012417421708838  0.4416536106793403  0.1919269017891777   T   T   T
  0.8556593011803517  0.7991229117011539  0.2138051631606160   T   T   T
  0.3554535139583130  0.6930248769939524  0.2146019437759608   T   T   T
  0.4253112117847130  0.1759801497528357  0.2283218865505039   T   T   T
  0.9418639502499234  0.2932896908274653  0.2279151101448454   T   T   T
  0.6921350108191926  0.5640491652146289  0.2467819544346067   T   T   T
  0.1854244113544809  0.9366407580201774  0.2464714006462340   T   T   T
  0.3142462611150867  0.4417574441665888  0.2620777324250627   T   T   T
  0.7942260615281669  0.0520767700367147  0.2552812758492748   T   T   T
  0.0455734685096405  0.6842368158074407  0.2724480502790464   T   T   T
  0.5459342583748509  0.8205563518763637  0.2736833369876381   T   T   T
  0.9911476005745652  0.3229140944681169  0.3177834156035525   T   T   T
  0.5225070149859072  0.5930544246425835  0.3188951510025927   T   T   T
  0.0512674171499921  0.8670024733003725  0.3222571173313111   T   T   T
  0.5323910813977460  0.1108836117544657  0.3230152297550272   T   T   T
  0.4828939105270622  0.3576660870111974  0.3750440244937978   T   T   T
  0.0006390449287164  0.6007102064461557  0.3731855443810753   T   T   T
  0.5415452514630973  0.8501222250119398  0.3709289017855340   T   T   T
  0.0005441512098376  0.1117535180847573  0.3791273157073658   T   T   T
  0.9935952448393875  0.3603910496993186  0.4308251048215548   T   T   T
  0.5021078249330769  0.6118160402947392  0.4243782682335790   T   T   T
  0.0673314389784533  0.8612199323168246  0.4236642549720631   T   T   T
  0.5055995956499739  0.0949488767837470  0.4275713473871567   T   T   T
  0.4869551615002712  0.3638388082692876  0.4812095463406761   T   T   T
  0.9425750072333126  0.6292158323729884  0.4885227643277393   T   T   T
  0.5717441648820777  0.8974988489333531  0.5012145335138724   T   T   T
  0.0212019632879390  0.0931109236615464  0.4832266888843281   T   T   T
  0.3517158227260471  0.4023948802649399  0.3105131697281386   T   T   T
  0.2497634911480852  0.2221483861064520  0.4552412570992335   T   T   T
  0.8046774427256553  0.9435322242678088  0.4556339149355302   T   T   T
  0.2637347603109980  0.7137669127572670  0.3459170683284902   T   T   T
  0.1422928975283281  0.4540450411523844  0.4756270188012687   T   T   T
  0.8243245255272285  0.1688075250719960  0.2921325409297119   T   T   T
  0.1777748556353732  0.9233536365374019  0.3732092074862420   T   T   T
  0.8764695565250495  0.1584252454579854  0.4292851658853022   T   T   T
  0.8344886259569847  0.7054371414858052  0.4153672760991211   T   T   T
  0.2422380112476296  0.2156996430429506  0.3479007583714805   T   T   T
  0.7515458482158018  0.4475557265417542  0.3438034389414540   T   T   T
  0.7471795334869600  0.4962095480600044  0.4548392013359435   T   T   T
  0.6210428410823249  0.1621249090412775  0.3767948652494637   T   T   T
  0.0988742487526102  0.4016941615656492  0.3795995361350715   T   T   T
  0.4479910841603815  0.8840979142455818  0.4225562949893761   T   T   T
  0.1912312177757036  0.6778472251775111  0.4503239499545799   T   T   T
  0.4401251482823502  0.8999167728666914  0.3166159255972287   T   T   T
  0.6291026556581756  0.6480272986603381  0.3682890486593801   T   T   T
  0.9080251842576224  0.6599008409751839  0.3167212222722561   T   T   T
  0.7970585481020581  0.9850358531460561  0.3467618870764376   T   T   T
  0.3871725123942864  0.4106830828638140  0.4260142268311042   T   T   T
  0.6168050363725924  0.7248837847623587  0.4689516160893891   T   T   T
  0.6020162182144573  0.1345875819697229  0.4870501060738263   T   T   T
  0.2154173748731443  0.8957758959479876  0.4779001672204154   T   T   T
 
  0.00000000E+00  0.00000000E+00  0.00000000E+00
  0.00000000E+00  0.00000000E+00  0.00000000E+00
  0.00000000E+00  0.00000000E+00  0.00000000E+00
  0.00000000E+00  0.00000000E+00  0.00000000E+00
  0.00000000E+00  0.00000000E+00  0.00000000E+00
  0.00000000E+00  0.00000000E+00  0.00000000E+00
  0.00000000E+00  0.00000000E+00  0.00000000E+00
  0.00000000E+00  0.00000000E+00  0.00000000E+00
  0.00000000E+00  0.00000000E+00  0.00000000E+00
  0.00000000E+00  0.00000000E+00  0.00000000E+00
  0.00000000E+00  0.00000000E+00  0.00000000E+00
  0.00000000E+00  0.00000000E+00  0.00000000E+00
  0.00000000E+00  0.00000000E+00  0.00000000E+00
  0.00000000E+00  0.00000000E+00  0.00000000E+00
  0.00000000E+00  0.00000000E+00  0.00000000E+00
  0.00000000E+00  0.00000000E+00  0.00000000E+00
  0.00000000E+00  0.00000000E+00  0.00000000E+00
  0.00000000E+00  0.00000000E+00  0.00000000E+00
  0.00000000E+00  0.00000000E+00  0.00000000E+00
  0.00000000E+00  0.00000000E+00  0.00000000E+00
  0.00000000E+00  0.00000000E+00  0.00000000E+00
  0.00000000E+00  0.00000000E+00  0.00000000E+00
  0.00000000E+00  0.00000000E+00  0.00000000E+00
  0.00000000E+00  0.00000000E+00  0.00000000E+00
  0.00000000E+00  0.00000000E+00  0.00000000E+00
  0.00000000E+00  0.00000000E+00  0.00000000E+00
  0.00000000E+00  0.00000000E+00  0.00000000E+00
  0.00000000E+00  0.00000000E+00  0.00000000E+00
  0.00000000E+00  0.00000000E+00  0.00000000E+00
  0.00000000E+00  0.00000000E+00  0.00000000E+00
  0.00000000E+00  0.00000000E+00  0.00000000E+00
  0.00000000E+00  0.00000000E+00  0.00000000E+00
  0.00000000E+00  0.00000000E+00  0.00000000E+00
  0.00000000E+00  0.00000000E+00  0.00000000E+00
  0.00000000E+00  0.00000000E+00  0.00000000E+00
  0.00000000E+00  0.00000000E+00  0.00000000E+00
  0.00000000E+00  0.00000000E+00  0.00000000E+00
  0.00000000E+00  0.00000000E+00  0.00000000E+00
  0.00000000E+00  0.00000000E+00  0.00000000E+00
  0.00000000E+00  0.00000000E+00  0.00000000E+00
  0.00000000E+00  0.00000000E+00  0.00000000E+00
  0.00000000E+00  0.00000000E+00  0.00000000E+00
  0.00000000E+00  0.00000000E+00  0.00000000E+00
  0.00000000E+00  0.00000000E+00  0.00000000E+00
  0.00000000E+00  0.00000000E+00  0.00000000E+00
  0.00000000E+00  0.00000000E+00  0.00000000E+00
  0.00000000E+00  0.00000000E+00  0.00000000E+00
  0.00000000E+00  0.00000000E+00  0.00000000E+00
  0.00000000E+00  0.00000000E+00  0.00000000E+00
  0.00000000E+00  0.00000000E+00  0.00000000E+00
  0.00000000E+00  0.00000000E+00  0.00000000E+00
  0.00000000E+00  0.00000000E+00  0.00000000E+00
  0.00000000E+00  0.00000000E+00  0.00000000E+00
  0.00000000E+00  0.00000000E+00  0.00000000E+00
  0.00000000E+00  0.00000000E+00  0.00000000E+00
  0.00000000E+00  0.00000000E+00  0.00000000E+00
  0.00000000E+00  0.00000000E+00  0.00000000E+00
  0.00000000E+00  0.00000000E+00  0.00000000E+00
  0.00000000E+00  0.00000000E+00  0.00000000E+00
  0.00000000E+00  0.00000000E+00  0.00000000E+00
  0.00000000E+00  0.00000000E+00  0.00000000E+00
  0.00000000E+00  0.00000000E+00  0.00000000E+00
  0.00000000E+00  0.00000000E+00  0.00000000E+00
  0.00000000E+00  0.00000000E+00  0.00000000E+00
  0.00000000E+00  0.00000000E+00  0.00000000E+00
  0.00000000E+00  0.00000000E+00  0.00000000E+00
  0.00000000E+00  0.00000000E+00  0.00000000E+00
  0.00000000E+00  0.00000000E+00  0.00000000E+00
  0.00000000E+00  0.00000000E+00  0.00000000E+00
  0.00000000E+00  0.00000000E+00  0.00000000E+00
  0.00000000E+00  0.00000000E+00  0.00000000E+00
  0.00000000E+00  0.00000000E+00  0.00000000E+00
  0.00000000E+00  0.00000000E+00  0.00000000E+00
  0.00000000E+00  0.00000000E+00  0.00000000E+00
  0.00000000E+00  0.00000000E+00  0.00000000E+00
  0.00000000E+00  0.00000000E+00  0.00000000E+00
  0.00000000E+00  0.00000000E+00  0.00000000E+00
  0.00000000E+00  0.00000000E+00  0.00000000E+00
  0.00000000E+00  0.00000000E+00  0.00000000E+00
  0.00000000E+00  0.00000000E+00  0.00000000E+00
  0.00000000E+00  0.00000000E+00  0.00000000E+00
  0.00000000E+00  0.00000000E+00  0.00000000E+00
  0.00000000E+00  0.00000000E+00  0.00000000E+00
  0.00000000E+00  0.00000000E+00  0.00000000E+00
  0.00000000E+00  0.00000000E+00  0.00000000E+00
  0.00000000E+00  0.00000000E+00  0.00000000E+00
  0.00000000E+00  0.00000000E+00  0.00000000E+00
  0.00000000E+00  0.00000000E+00  0.00000000E+00
