Fe  Fe  H   O   S   Ni  Fe Co           
   1.00000000000000     
     5.6388600000000002    0.0000000000000000    0.0000000000000000
     0.0000000000000000   10.2679500000000008    0.0000000000000000
     0.0000000000000000    0.0000000000000000   41.0286899999999974
   Fe   Fe   H    O    S    Ni   Fe   Co
     6     6    12    24    16    22     1     1
Selective dynamics
Direct
  0.7522174578291571  0.1460549575984338  0.1206790560272099   T   T   T
  0.0314927529112078  0.6185340740180281  0.1441865054298732   T   T   T
  0.4381521467269937  0.1358881651055039  0.1808151361538417   T   T   T
  0.6875524275119476  0.6304093365283894  0.2002281548629889   T   T   T
  0.1125134714330524  0.1242166895782483  0.2357987686693549   T   T   T
  0.3821849436893477  0.6475441795360195  0.2619417580025528   T   T   T
  0.2509061142306389  0.3314040957481250  0.1211903212893239   T   T   T
  0.5348122317469532  0.8555630622463444  0.1438260995578960   T   T   T
  0.9363923119268935  0.3426600862291553  0.1822053312858378   T   T   T
  0.1875396852116625  0.8421498527947490  0.1985180723230812   T   T   T
  0.6103491207737409  0.3508799558563133  0.2401576115542848   T   T   T
  0.8813612581515634  0.8438825634565982  0.2596821174816593   T   T   T
  0.7718844715430788  0.3950790799697997  0.1229771975111181   T   T   T
  0.2714067634899928  0.0813101290395908  0.1225081848733445   T   T   T
  0.9576324815898841  0.9051455941402949  0.1270687462660888   T   T   T
  0.4568284023964420  0.5719055242795085  0.1275710279624070   T   T   T
  0.9613199503396904  0.0838783519765791  0.1794433368005780   T   T   T
  0.4721265384371674  0.3985640851987353  0.1807303908769176   T   T   T
  0.1674800962963066  0.5856877797529321  0.2017199545018705   T   T   T
  0.6618438892084421  0.8892194656350376  0.2010560299376019   T   T   T
  0.1756923405034530  0.4029547954013304  0.2556362060402656   T   T   T
  0.6625418322390585  0.0827331170396983  0.2471143940412228   T   T   T
  0.8505980965320241  0.5928738908330313  0.2585189005244659   T   T   T
  0.3522556305534917  0.8987442943604943  0.2560947283348651   T   T   T
  0.0620606447160636  0.1883235717516749  0.1091260500508992   T   T   T
  0.5608909546106359  0.2884277258607401  0.1094491063844427   T   T   T
  0.8011022711144361  0.9434318727327627  0.1227322489038526   T   T   T
  0.3006604248175477  0.5335976215602379  0.1229478716056195   T   T   T
  0.9171697033492293  0.4316962134170746  0.1343757673933360   T   T   T
  0.4152714335910824  0.0442290242329618  0.1341828420195684   T   T   T
  0.2056250192620027  0.7827645235709784  0.1519781822935165   T   T   T
  0.7061065085734091  0.6923666276853986  0.1521105352583590   T   T   T
  0.7629483587128155  0.1839420941731827  0.1686631057321321   T   T   T
  0.2617722327984660  0.2926115141228696  0.1689115732474752   T   T   T
  0.0300819169706644  0.5458610506434535  0.1891526077773183   T   T   T
  0.5235658402549119  0.9288512320473007  0.1886182745364905   T   T   T
  0.1015807319137055  0.0425389624566011  0.1913835444811663   T   T   T
  0.6123085080723805  0.4363332322983809  0.1925544251353576   T   T   T
  0.8641708645616497  0.7930665621922217  0.2137450442352458   T   T   T
  0.3622587202289959  0.6857354840299218  0.2146749473806756   T   T   T
  0.4408505240831723  0.1727360070035569  0.2292297073144576   T   T   T
  0.9539226064896060  0.2882087613366107  0.2291609530429714   T   T   T
  0.7030505630003903  0.5575249113946095  0.2476622220915185   T   T   T
  0.1963356235312361  0.9315867866463594  0.2463471743395313   T   T   T
  0.3268723988629126  0.4406129103397391  0.2635647442162758   T   T   T
  0.8155397709596511  0.0481094373893620  0.2570145924230710   T   T   T
  0.0509941179745410  0.6852168909243493  0.2740114916157341   T   T   T
  0.5526858484422750  0.8176676019467386  0.2712836285893633   T   T   T
  0.9931432560592034  0.3565696275591884  0.3187956875686521   T   T   T
  0.5192125367394155  0.6162307373702045  0.3211350608475114   T   T   T
  0.0538617974629264  0.8721503132082500  0.3245807126429285   T   T   T
  0.5190151381974781  0.1068705084081705  0.3210143075713719   T   T   T
  0.4761154035401909  0.3621818411559563  0.3717656255349455   T   T   T
  0.0097525934217414  0.6105327890993086  0.3736801761341901   T   T   T
  0.5082155625219350  0.8639917290334903  0.3759448456299275   T   T   T
  0.9872885789013006  0.1178882122956062  0.3756465084169759   T   T   T
  0.9865602114228357  0.3630358885941083  0.4248842809911263   T   T   T
  0.4989641337392356  0.6101948235047812  0.4246955047586590   T   T   T
  0.9955523075464744  0.8597022817797290  0.4261945912035457   T   T   T
  0.4911450037078240  0.1134838713436210  0.4260732532560034   T   T   T
  0.4592629662983159  0.3665352951073242  0.4827398575621547   T   T   T
  0.9696374899225011  0.6163800321180153  0.4809517442183182   T   T   T
  0.4718692206400578  0.8638426399245228  0.4810151442995154   T   T   T
  0.9691106319581404  0.1149655252360975  0.4814836858313829   T   T   T
  0.2314731355391783  0.2161549639626062  0.3426636179032180   T   T   T
  0.1334269530870722  0.9248451358590584  0.3771840349453107   T   T   T
  0.2377794802298861  0.7209951689806295  0.4527060868592021   T   T   T
  0.7363542139570272  0.9748680539751130  0.4534040922565349   T   T   T
  0.6171571598210294  0.6766795326956250  0.4751496665865172   T   T   T
  0.8803415428524293  0.6588221722409950  0.4250649064769652   T   T   T
  0.7742062845651095  0.9823715858279606  0.3475121897182152   T   T   T
  0.3581726173638267  0.4167201595116925  0.4218860260878136   T   T   T
  0.8647409143550469  0.1674592129020389  0.4244602930334441   T   T   T
  0.1186765757430614  0.9281938114300182  0.4756173669805336   T   T   T
  0.2296450100667644  0.2245402391114115  0.4526055967274092   T   T   T
  0.4562024280584935  0.8901638134973423  0.3138809484979563   T   T   T
  0.3631495031876722  0.4189138497997759  0.3127607121740833   T   T   T
  0.9109454257094755  0.6712850038171104  0.3192145056331155   T   T   T
  0.3759974262537790  0.9149040162777161  0.4257732277110839   T   T   T
  0.7190420398170312  0.4666408532250915  0.4523867234099809   T   T   T
  0.6425426458149702  0.6668319603781313  0.3757229544526859   T   T   T
  0.7388133059216978  0.4702855925167313  0.3450804615873806   T   T   T
  0.6194771815205052  0.1846263176679322  0.4750181293666546   T   T   T
  0.1103536201024889  0.4297904780204438  0.4739189032010742   T   T   T
  0.1031217576156392  0.4088892642794726  0.3724014170689542   T   T   T
  0.6059298860824848  0.1675681248825628  0.3743031231621051   T   T   T
  0.8755521985307707  0.1667090932664575  0.2969346524729928   T   T   T
  0.2723278595609989  0.7287947340556606  0.3499967068425319   T   T   T
 
  0.00000000E+00  0.00000000E+00  0.00000000E+00
  0.00000000E+00  0.00000000E+00  0.00000000E+00
  0.00000000E+00  0.00000000E+00  0.00000000E+00
  0.00000000E+00  0.00000000E+00  0.00000000E+00
  0.00000000E+00  0.00000000E+00  0.00000000E+00
  0.00000000E+00  0.00000000E+00  0.00000000E+00
  0.00000000E+00  0.00000000E+00  0.00000000E+00
  0.00000000E+00  0.00000000E+00  0.00000000E+00
  0.00000000E+00  0.00000000E+00  0.00000000E+00
  0.00000000E+00  0.00000000E+00  0.00000000E+00
  0.00000000E+00  0.00000000E+00  0.00000000E+00
  0.00000000E+00  0.00000000E+00  0.00000000E+00
  0.00000000E+00  0.00000000E+00  0.00000000E+00
  0.00000000E+00  0.00000000E+00  0.00000000E+00
  0.00000000E+00  0.00000000E+00  0.00000000E+00
  0.00000000E+00  0.00000000E+00  0.00000000E+00
  0.00000000E+00  0.00000000E+00  0.00000000E+00
  0.00000000E+00  0.00000000E+00  0.00000000E+00
  0.00000000E+00  0.00000000E+00  0.00000000E+00
  0.00000000E+00  0.00000000E+00  0.00000000E+00
  0.00000000E+00  0.00000000E+00  0.00000000E+00
  0.00000000E+00  0.00000000E+00  0.00000000E+00
  0.00000000E+00  0.00000000E+00  0.00000000E+00
  0.00000000E+00  0.00000000E+00  0.00000000E+00
  0.00000000E+00  0.00000000E+00  0.00000000E+00
  0.00000000E+00  0.00000000E+00  0.00000000E+00
  0.00000000E+00  0.00000000E+00  0.00000000E+00
  0.00000000E+00  0.00000000E+00  0.00000000E+00
  0.00000000E+00  0.00000000E+00  0.00000000E+00
  0.00000000E+00  0.00000000E+00  0.00000000E+00
  0.00000000E+00  0.00000000E+00  0.00000000E+00
  0.00000000E+00  0.00000000E+00  0.00000000E+00
  0.00000000E+00  0.00000000E+00  0.00000000E+00
  0.00000000E+00  0.00000000E+00  0.00000000E+00
  0.00000000E+00  0.00000000E+00  0.00000000E+00
  0.00000000E+00  0.00000000E+00  0.00000000E+00
  0.00000000E+00  0.00000000E+00  0.00000000E+00
  0.00000000E+00  0.00000000E+00  0.00000000E+00
  0.00000000E+00  0.00000000E+00  0.00000000E+00
  0.00000000E+00  0.00000000E+00  0.00000000E+00
  0.00000000E+00  0.00000000E+00  0.00000000E+00
  0.00000000E+00  0.00000000E+00  0.00000000E+00
  0.00000000E+00  0.00000000E+00  0.00000000E+00
  0.00000000E+00  0.00000000E+00  0.00000000E+00
  0.00000000E+00  0.00000000E+00  0.00000000E+00
  0.00000000E+00  0.00000000E+00  0.00000000E+00
  0.00000000E+00  0.00000000E+00  0.00000000E+00
  0.00000000E+00  0.00000000E+00  0.00000000E+00
  0.00000000E+00  0.00000000E+00  0.00000000E+00
  0.00000000E+00  0.00000000E+00  0.00000000E+00
  0.00000000E+00  0.00000000E+00  0.00000000E+00
  0.00000000E+00  0.00000000E+00  0.00000000E+00
  0.00000000E+00  0.00000000E+00  0.00000000E+00
  0.00000000E+00  0.00000000E+00  0.00000000E+00
  0.00000000E+00  0.00000000E+00  0.00000000E+00
  0.00000000E+00  0.00000000E+00  0.00000000E+00
  0.00000000E+00  0.00000000E+00  0.00000000E+00
  0.00000000E+00  0.00000000E+00  0.00000000E+00
  0.00000000E+00  0.00000000E+00  0.00000000E+00
  0.00000000E+00  0.00000000E+00  0.00000000E+00
  0.00000000E+00  0.00000000E+00  0.00000000E+00
  0.00000000E+00  0.00000000E+00  0.00000000E+00
  0.00000000E+00  0.00000000E+00  0.00000000E+00
  0.00000000E+00  0.00000000E+00  0.00000000E+00
  0.00000000E+00  0.00000000E+00  0.00000000E+00
  0.00000000E+00  0.00000000E+00  0.00000000E+00
  0.00000000E+00  0.00000000E+00  0.00000000E+00
  0.00000000E+00  0.00000000E+00  0.00000000E+00
  0.00000000E+00  0.00000000E+00  0.00000000E+00
  0.00000000E+00  0.00000000E+00  0.00000000E+00
  0.00000000E+00  0.00000000E+00  0.00000000E+00
  0.00000000E+00  0.00000000E+00  0.00000000E+00
  0.00000000E+00  0.00000000E+00  0.00000000E+00
  0.00000000E+00  0.00000000E+00  0.00000000E+00
  0.00000000E+00  0.00000000E+00  0.00000000E+00
  0.00000000E+00  0.00000000E+00  0.00000000E+00
  0.00000000E+00  0.00000000E+00  0.00000000E+00
  0.00000000E+00  0.00000000E+00  0.00000000E+00
  0.00000000E+00  0.00000000E+00  0.00000000E+00
  0.00000000E+00  0.00000000E+00  0.00000000E+00
  0.00000000E+00  0.00000000E+00  0.00000000E+00
  0.00000000E+00  0.00000000E+00  0.00000000E+00
  0.00000000E+00  0.00000000E+00  0.00000000E+00
  0.00000000E+00  0.00000000E+00  0.00000000E+00
  0.00000000E+00  0.00000000E+00  0.00000000E+00
  0.00000000E+00  0.00000000E+00  0.00000000E+00
  0.00000000E+00  0.00000000E+00  0.00000000E+00
  0.00000000E+00  0.00000000E+00  0.00000000E+00
