Fe  Fe  H   O   S   Ni  Fe Co           
   1.00000000000000     
     5.6388600000000002    0.0000000000000000    0.0000000000000000
     0.0000000000000000   10.2679500000000008    0.0000000000000000
     0.0000000000000000    0.0000000000000000   41.0286899999999974
   Fe   Fe   H    O    S    Ni   Fe   Co
     6     6    12    24    16    22     1     1
Selective dynamics
Direct
  0.7451402854035030  0.1528282427302440  0.1185041589768877   T   T   T
  0.0293701649199753  0.6263714368869037  0.1423513758612081   T   T   T
  0.4293936055071312  0.1425442103789618  0.1785583890055834   T   T   T
  0.6848095045813191  0.6391905913353668  0.1980545264928794   T   T   T
  0.1045386512110051  0.1295248337201883  0.2339023143108491   T   T   T
  0.3868059598508172  0.6556175686787252  0.2594183155016455   T   T   T
  0.2450247944422811  0.3382634808283134  0.1190033709593487   T   T   T
  0.5287957189861815  0.8626268516112087  0.1421124905496701   T   T   T
  0.9281877691295578  0.3485441299545275  0.1795175882880183   T   T   T
  0.1827564376514536  0.8502571105982608  0.1974002808326218   T   T   T
  0.6123569481905018  0.3564952571879939  0.2386916223358806   T   T   T
  0.8745928250631863  0.8509722902849667  0.2594801211602805   T   T   T
  0.7652284587318324  0.4031789496286220  0.1208457548296966   T   T   T
  0.2640671368775384  0.0878939050258627  0.1203451515167733   T   T   T
  0.9519152502260332  0.9125043925206442  0.1252895286975891   T   T   T
  0.4531942582102740  0.5773835356417116  0.1255015595752116   T   T   T
  0.9526216039014692  0.0875156892286156  0.1776774201690117   T   T   T
  0.4684296438657985  0.4059021049617964  0.1789101609089410   T   T   T
  0.1630292873268130  0.5922991177250219  0.1999926710461203   T   T   T
  0.6565115781752597  0.8973709454875511  0.1994129987728966   T   T   T
  0.1658533291732613  0.4065812892342396  0.2469710341121143   T   T   T
  0.6461470409569400  0.0849159467513306  0.2419444615102449   T   T   T
  0.8526888255508358  0.6008950532597931  0.2551785096458780   T   T   T
  0.3416781784728729  0.9079934064580252  0.2568317827138396   T   T   T
  0.0547999550530145  0.1957318616952119  0.1070896903801994   T   T   T
  0.5549130781462116  0.2957818005530967  0.1072489187834023   T   T   T
  0.7951915520002680  0.9502336305684101  0.1208600511455088   T   T   T
  0.2963143992062027  0.5401433643964130  0.1208903079860230   T   T   T
  0.9096476412716834  0.4396710566467011  0.1324824013758061   T   T   T
  0.4076479341990744  0.0508068484811477  0.1320873520213892   T   T   T
  0.2024287161849176  0.7897360325546742  0.1505886701292591   T   T   T
  0.7039686485399489  0.7002654440317396  0.1502834934010958   T   T   T
  0.7548738608528117  0.1901560003116751  0.1663910577893611   T   T   T
  0.2537221632514537  0.2988287983705485  0.1666018833241099   T   T   T
  0.0263923761907182  0.5536053568378534  0.1873391250967398   T   T   T
  0.5179144000327209  0.9359839814974453  0.1867947650832957   T   T   T
  0.0929088059730035  0.0470055033299602  0.1897089706073916   T   T   T
  0.6084941591786890  0.4433697138108116  0.1907181090929466   T   T   T
  0.8597519637340179  0.8017926354041174  0.2129117098410494   T   T   T
  0.3615311568193283  0.6968320114564558  0.2128465999954540   T   T   T
  0.4315580274496226  0.1763028578715264  0.2265769099557033   T   T   T
  0.9504463463569123  0.2948522156054653  0.2265836650012532   T   T   T
  0.7003940336667808  0.5663585677278420  0.2456839786561442   T   T   T
  0.1907750128383163  0.9388913221881628  0.2458789095775492   T   T   T
  0.3119643605498054  0.4459989562165556  0.2565112708587524   T   T   T
  0.7971255656365991  0.0519443747137789  0.2532857594457383   T   T   T
  0.0569905715597583  0.6893864955462057  0.2707591275729381   T   T   T
  0.5509226802713575  0.8190889892208163  0.2735484888045174   T   T   T
  0.9417783104195875  0.3576805165336153  0.3094300219715904   T   T   T
  0.5402615048488463  0.5949123976550378  0.3236448615864192   T   T   T
  0.0417327702904512  0.8588412521388489  0.3236024499897567   T   T   T
  0.5340539146700866  0.1073245159141014  0.3219384301881711   T   T   T
  0.4680173744083688  0.3691348807794125  0.3802021454005756   T   T   T
  0.0063700229052883  0.5964654563588927  0.3767585382674432   T   T   T
  0.5299485496463174  0.8474410702802990  0.3742365752109384   T   T   T
  0.0020060282645793  0.1078891506469002  0.3794426577781799   T   T   T
  0.9797709975225031  0.3394697145712766  0.4351809486813157   T   T   T
  0.5153577448665774  0.6020874883384292  0.4323957012071891   T   T   T
  0.0335827522351271  0.8513054256092507  0.4260593276459900   T   T   T
  0.4817190365193741  0.1153146255251107  0.4242311454699093   T   T   T
  0.4857528620863171  0.3363412840160939  0.4858115312351416   T   T   T
  0.0047330038042216  0.6098415158829726  0.4841385760722399   T   T   T
  0.4798531108211116  0.8670625320845982  0.4913179067061780   T   T   T
  0.9634472694572386  0.1031416572850850  0.4920849552425792   T   T   T
  0.1485950681542945  0.9113710367405772  0.3746970259746977   T   T   T
  0.9104718554675494  0.6507148248751276  0.4280943122373875   T   T   T
  0.7433939094957952  0.4680872961035319  0.4612942680223807   T   T   T
  0.0975746026698753  0.4018110577757171  0.3879680665769835   T   T   T
  0.6401800260116153  0.1855910354717626  0.3746453137576268   T   T   T
  0.6281950579465346  0.6438576936667707  0.3800849977238429   T   T   T
  0.3826659481891965  0.3994713269304090  0.4331083433522251   T   T   T
  0.2682370247066903  0.7327127154184523  0.4572806283246363   T   T   T
  0.5959405911525062  0.1282977715050984  0.4789646984092493   T   T   T
  0.7543325390471848  0.4474623891275037  0.3510681948364145   T   T   T
  0.4347428556896120  0.8922734531656029  0.3167809534231426   T   T   T
  0.7823205294455645  0.9805243619384578  0.3485014632014140   T   T   T
  0.1302104962447688  0.4141014199582898  0.4824882157628103   T   T   T
  0.2791714392327197  0.4609281696166685  0.3040010120436987   T   T   T
  0.4187489162692969  0.9109644353518709  0.4220194846694088   T   T   T
  0.8635669447528960  0.1350682357279620  0.4303949663694770   T   T   T
  0.7636085334024922  0.9226278703498447  0.4585710929089256   T   T   T
  0.2689464489954672  0.7084514461375252  0.3493800399547253   T   T   T
  0.2196745723179536  0.2004932346682038  0.4589052949900422   T   T   T
  0.8064191740142012  0.1800945023724306  0.2882988968209114   T   T   T
  0.6654755368316881  0.6950978723326472  0.4773990239141265   T   T   T
  0.1866521678200781  0.9653990681376737  0.4693347174446229   T   T   T
  0.2159602701266307  0.2412765127165319  0.3415276974452663   T   T   T
  0.9417615738803213  0.6329636271359032  0.3139447154835454   T   T   T
 
  0.00000000E+00  0.00000000E+00  0.00000000E+00
  0.00000000E+00  0.00000000E+00  0.00000000E+00
  0.00000000E+00  0.00000000E+00  0.00000000E+00
  0.00000000E+00  0.00000000E+00  0.00000000E+00
  0.00000000E+00  0.00000000E+00  0.00000000E+00
  0.00000000E+00  0.00000000E+00  0.00000000E+00
  0.00000000E+00  0.00000000E+00  0.00000000E+00
  0.00000000E+00  0.00000000E+00  0.00000000E+00
  0.00000000E+00  0.00000000E+00  0.00000000E+00
  0.00000000E+00  0.00000000E+00  0.00000000E+00
  0.00000000E+00  0.00000000E+00  0.00000000E+00
  0.00000000E+00  0.00000000E+00  0.00000000E+00
  0.00000000E+00  0.00000000E+00  0.00000000E+00
  0.00000000E+00  0.00000000E+00  0.00000000E+00
  0.00000000E+00  0.00000000E+00  0.00000000E+00
  0.00000000E+00  0.00000000E+00  0.00000000E+00
  0.00000000E+00  0.00000000E+00  0.00000000E+00
  0.00000000E+00  0.00000000E+00  0.00000000E+00
  0.00000000E+00  0.00000000E+00  0.00000000E+00
  0.00000000E+00  0.00000000E+00  0.00000000E+00
  0.00000000E+00  0.00000000E+00  0.00000000E+00
  0.00000000E+00  0.00000000E+00  0.00000000E+00
  0.00000000E+00  0.00000000E+00  0.00000000E+00
  0.00000000E+00  0.00000000E+00  0.00000000E+00
  0.00000000E+00  0.00000000E+00  0.00000000E+00
  0.00000000E+00  0.00000000E+00  0.00000000E+00
  0.00000000E+00  0.00000000E+00  0.00000000E+00
  0.00000000E+00  0.00000000E+00  0.00000000E+00
  0.00000000E+00  0.00000000E+00  0.00000000E+00
  0.00000000E+00  0.00000000E+00  0.00000000E+00
  0.00000000E+00  0.00000000E+00  0.00000000E+00
  0.00000000E+00  0.00000000E+00  0.00000000E+00
  0.00000000E+00  0.00000000E+00  0.00000000E+00
  0.00000000E+00  0.00000000E+00  0.00000000E+00
  0.00000000E+00  0.00000000E+00  0.00000000E+00
  0.00000000E+00  0.00000000E+00  0.00000000E+00
  0.00000000E+00  0.00000000E+00  0.00000000E+00
  0.00000000E+00  0.00000000E+00  0.00000000E+00
  0.00000000E+00  0.00000000E+00  0.00000000E+00
  0.00000000E+00  0.00000000E+00  0.00000000E+00
  0.00000000E+00  0.00000000E+00  0.00000000E+00
  0.00000000E+00  0.00000000E+00  0.00000000E+00
  0.00000000E+00  0.00000000E+00  0.00000000E+00
  0.00000000E+00  0.00000000E+00  0.00000000E+00
  0.00000000E+00  0.00000000E+00  0.00000000E+00
  0.00000000E+00  0.00000000E+00  0.00000000E+00
  0.00000000E+00  0.00000000E+00  0.00000000E+00
  0.00000000E+00  0.00000000E+00  0.00000000E+00
  0.00000000E+00  0.00000000E+00  0.00000000E+00
  0.00000000E+00  0.00000000E+00  0.00000000E+00
  0.00000000E+00  0.00000000E+00  0.00000000E+00
  0.00000000E+00  0.00000000E+00  0.00000000E+00
  0.00000000E+00  0.00000000E+00  0.00000000E+00
  0.00000000E+00  0.00000000E+00  0.00000000E+00
  0.00000000E+00  0.00000000E+00  0.00000000E+00
  0.00000000E+00  0.00000000E+00  0.00000000E+00
  0.00000000E+00  0.00000000E+00  0.00000000E+00
  0.00000000E+00  0.00000000E+00  0.00000000E+00
  0.00000000E+00  0.00000000E+00  0.00000000E+00
  0.00000000E+00  0.00000000E+00  0.00000000E+00
  0.00000000E+00  0.00000000E+00  0.00000000E+00
  0.00000000E+00  0.00000000E+00  0.00000000E+00
  0.00000000E+00  0.00000000E+00  0.00000000E+00
  0.00000000E+00  0.00000000E+00  0.00000000E+00
  0.00000000E+00  0.00000000E+00  0.00000000E+00
  0.00000000E+00  0.00000000E+00  0.00000000E+00
  0.00000000E+00  0.00000000E+00  0.00000000E+00
  0.00000000E+00  0.00000000E+00  0.00000000E+00
  0.00000000E+00  0.00000000E+00  0.00000000E+00
  0.00000000E+00  0.00000000E+00  0.00000000E+00
  0.00000000E+00  0.00000000E+00  0.00000000E+00
  0.00000000E+00  0.00000000E+00  0.00000000E+00
  0.00000000E+00  0.00000000E+00  0.00000000E+00
  0.00000000E+00  0.00000000E+00  0.00000000E+00
  0.00000000E+00  0.00000000E+00  0.00000000E+00
  0.00000000E+00  0.00000000E+00  0.00000000E+00
  0.00000000E+00  0.00000000E+00  0.00000000E+00
  0.00000000E+00  0.00000000E+00  0.00000000E+00
  0.00000000E+00  0.00000000E+00  0.00000000E+00
  0.00000000E+00  0.00000000E+00  0.00000000E+00
  0.00000000E+00  0.00000000E+00  0.00000000E+00
  0.00000000E+00  0.00000000E+00  0.00000000E+00
  0.00000000E+00  0.00000000E+00  0.00000000E+00
  0.00000000E+00  0.00000000E+00  0.00000000E+00
  0.00000000E+00  0.00000000E+00  0.00000000E+00
  0.00000000E+00  0.00000000E+00  0.00000000E+00
  0.00000000E+00  0.00000000E+00  0.00000000E+00
  0.00000000E+00  0.00000000E+00  0.00000000E+00
