Fe  Fe  H   O   S   Ni  Fe Co           
   1.00000000000000     
     5.6388600000000002    0.0000000000000000    0.0000000000000000
     0.0000000000000000   10.2679500000000008    0.0000000000000000
     0.0000000000000000    0.0000000000000000   41.0286899999999974
   Fe   Fe   H    O    S    Ni   Fe   Co
     6     6    12    24    16    22     1     1
Selective dynamics
Direct
  0.7494812448920408  0.1462395653744833  0.1196160513850003   T   T   T
  0.0301511670244885  0.6188422760186039  0.1430443185684370   T   T   T
  0.4374364956766432  0.1358525361355299  0.1799208392852810   T   T   T
  0.6893755316560966  0.6304432455760900  0.1992990667223695   T   T   T
  0.1153989180274450  0.1251669878777511  0.2350944885853885   T   T   T
  0.3828333773838029  0.6404015873924640  0.2607163518576612   T   T   T
  0.2487103533278948  0.3314027815194004  0.1201890635353284   T   T   T
  0.5338921884950339  0.8555009261337961  0.1426687740275565   T   T   T
  0.9348375002778201  0.3420782712779658  0.1809812950918901   T   T   T
  0.1897324537313933  0.8417455374025476  0.1972146543009687   T   T   T
  0.6175212458766451  0.3490635029492137  0.2399469878636386   T   T   T
  0.8949794866790766  0.8420476814806521  0.2588805055703365   T   T   T
  0.7692250565384564  0.3950028476741893  0.1219754469721730   T   T   T
  0.2681991467945292  0.0818712651027313  0.1217574138295822   T   T   T
  0.9544904276502076  0.9060950687153893  0.1252659091910326   T   T   T
  0.4543846663413214  0.5716343911131592  0.1262374459998305   T   T   T
  0.9607595935130823  0.0835609522988598  0.1788442094274994   T   T   T
  0.4711930354221894  0.3985352140795239  0.1801841526993876   T   T   T
  0.1683485860678131  0.5859750095882762  0.2003442603730059   T   T   T
  0.6635790540927340  0.8893838215253216  0.1999689004516080   T   T   T
  0.1757902955879465  0.3975490786274911  0.2531490861200233   T   T   T
  0.6701928895208177  0.0825906973641916  0.2466394541119877   T   T   T
  0.8510519606017614  0.5923617175208390  0.2579852745094053   T   T   T
  0.3620588538976309  0.8984749454943838  0.2535786866614373   T   T   T
  0.0595602844493139  0.1881591282859966  0.1082144697592409   T   T   T
  0.5589326038543728  0.2891195366108164  0.1084952635156243   T   T   T
  0.7972254340754574  0.9436370377757615  0.1211415093333835   T   T   T
  0.2980006617844870  0.5338474455814813  0.1215228022063783   T   T   T
  0.9144668855655405  0.4314012692802322  0.1334635653846194   T   T   T
  0.4117021467789937  0.0446059026648928  0.1335116434225694   T   T   T
  0.2050042129484001  0.7835777413313416  0.1507553831587345   T   T   T
  0.7055671810200983  0.6926341173692672  0.1511228011763092   T   T   T
  0.7618703082110588  0.1827087251761375  0.1676490825062069   T   T   T
  0.2605184408070243  0.2920401638814647  0.1679136692185468   T   T   T
  0.0299934547041105  0.5460802011648941  0.1879409922528933   T   T   T
  0.5252360530350179  0.9285296504432515  0.1875003897333770   T   T   T
  0.1002011092335375  0.0422100688831174  0.1909843806210466   T   T   T
  0.6110700024288602  0.4360200603413748  0.1920709284219433   T   T   T
  0.8699798705069309  0.7929493704918009  0.2127992525382450   T   T   T
  0.3638002538186604  0.6851213163994566  0.2133754906115549   T   T   T
  0.4431541363208901  0.1708154001130760  0.2284518247573726   T   T   T
  0.9569232016054841  0.2883043272066818  0.2276593933022741   T   T   T
  0.7059987897102528  0.5570525884961688  0.2466933358417391   T   T   T
  0.2024130850375857  0.9323663487440900  0.2456744842639613   T   T   T
  0.3237573299490590  0.4347694652729479  0.2624014096793731   T   T   T
  0.8208901948299221  0.0496935020250124  0.2575167473666000   T   T   T
  0.0581597027110651  0.6853194087659793  0.2737532591240869   T   T   T
  0.5645129772937945  0.8170608152474207  0.2692796953274110   T   T   T
  0.9690210845919220  0.3391695740271699  0.3170885955389087   T   T   T
  0.5128132270448029  0.6151084757000638  0.3188673629256240   T   T   T
  0.0345103498386005  0.8737398338260396  0.3261328296632651   T   T   T
  0.5301505459094872  0.1096583643025149  0.3235921264005574   T   T   T
  0.4524630423050781  0.3636437091277634  0.3714764565297159   T   T   T
  0.0085407671864475  0.5990297362847310  0.3716947337465277   T   T   T
  0.5089551590175783  0.8568413811877738  0.3788069717974159   T   T   T
  0.9918287720746480  0.1155758325568279  0.3794888851313221   T   T   T
  0.9755201347642192  0.3777551643753353  0.4264588160160296   T   T   T
  0.5495161013629802  0.6110383599939304  0.4273049994836202   T   T   T
  0.0123560109774819  0.8443490634790951  0.4287633924526645   T   T   T
  0.4850177228033440  0.1198737352143128  0.4307666767143009   T   T   T
  0.4143457320458964  0.3799425653230767  0.4906505534423835   T   T   T
  0.0342529225051997  0.6629944170509305  0.4993627341455745   T   T   T
  0.5053938749793901  0.8498799452644606  0.4813336958443736   T   T   T
  0.9763609494922589  0.1170213340972369  0.4806234456587066   T   T   T
  0.6464368637065053  0.6593584476754399  0.3760808114835982   T   T   T
  0.6560710199034625  0.4292517242310034  0.4517502174191559   T   T   T
  0.0661926767785674  0.3948924223408776  0.3682654315450505   T   T   T
  0.2977590988587488  0.4732266117249802  0.4127079030477187   T   T   T
  0.2745528918877062  0.7251562228402720  0.3498957063627631   T   T   T
  0.3327259155916401  0.4162799769864352  0.3118725480441681   T   T   T
  0.9079588939693035  0.6692764394593469  0.3190997014887921   T   T   T
  0.3803502831546738  0.9158301832394021  0.4285424349150760   T   T   T
  0.6919796683874264  0.6609411874954666  0.4758322017353274   T   T   T
  0.2802543192748386  0.7043147336342022  0.4550844253946960   T   T   T
  0.8493199998024190  0.1616139286206028  0.2963274117783576   T   T   T
  0.9309763342040721  0.6321322217201384  0.4234567118981584   T   T   T
  0.6219720628103091  0.2062361871985917  0.4771278366381804   T   T   T
  0.0960397187807036  0.4846986226379238  0.4711950631795637   T   T   T
  0.8644486450882366  0.1761087030891940  0.4271875575040697   T   T   T
  0.7417527648027379  0.9792535454259913  0.4552922654613550   T   T   T
  0.7137269397929727  0.4637379171737082  0.3415672411889227   T   T   T
  0.2304925032152730  0.2572505140685388  0.4545074171740194   T   T   T
  0.2238277649918999  0.2067842915165187  0.3432497295116419   T   T   T
  0.1345255309489943  0.9195732935822850  0.3789079425276449   T   T   T
  0.7641598502922899  0.9814496725304683  0.3526798641466701   T   T   T
  0.6010441965147425  0.1716212322521313  0.3778095989321981   T   T   T
  0.4628868476566634  0.8868358352269921  0.3106589355403208   T   T   T
  0.1059829629296789  0.9030440937226901  0.4838903569272418   T   T   T
 
  0.00000000E+00  0.00000000E+00  0.00000000E+00
  0.00000000E+00  0.00000000E+00  0.00000000E+00
  0.00000000E+00  0.00000000E+00  0.00000000E+00
  0.00000000E+00  0.00000000E+00  0.00000000E+00
  0.00000000E+00  0.00000000E+00  0.00000000E+00
  0.00000000E+00  0.00000000E+00  0.00000000E+00
  0.00000000E+00  0.00000000E+00  0.00000000E+00
  0.00000000E+00  0.00000000E+00  0.00000000E+00
  0.00000000E+00  0.00000000E+00  0.00000000E+00
  0.00000000E+00  0.00000000E+00  0.00000000E+00
  0.00000000E+00  0.00000000E+00  0.00000000E+00
  0.00000000E+00  0.00000000E+00  0.00000000E+00
  0.00000000E+00  0.00000000E+00  0.00000000E+00
  0.00000000E+00  0.00000000E+00  0.00000000E+00
  0.00000000E+00  0.00000000E+00  0.00000000E+00
  0.00000000E+00  0.00000000E+00  0.00000000E+00
  0.00000000E+00  0.00000000E+00  0.00000000E+00
  0.00000000E+00  0.00000000E+00  0.00000000E+00
  0.00000000E+00  0.00000000E+00  0.00000000E+00
  0.00000000E+00  0.00000000E+00  0.00000000E+00
  0.00000000E+00  0.00000000E+00  0.00000000E+00
  0.00000000E+00  0.00000000E+00  0.00000000E+00
  0.00000000E+00  0.00000000E+00  0.00000000E+00
  0.00000000E+00  0.00000000E+00  0.00000000E+00
  0.00000000E+00  0.00000000E+00  0.00000000E+00
  0.00000000E+00  0.00000000E+00  0.00000000E+00
  0.00000000E+00  0.00000000E+00  0.00000000E+00
  0.00000000E+00  0.00000000E+00  0.00000000E+00
  0.00000000E+00  0.00000000E+00  0.00000000E+00
  0.00000000E+00  0.00000000E+00  0.00000000E+00
  0.00000000E+00  0.00000000E+00  0.00000000E+00
  0.00000000E+00  0.00000000E+00  0.00000000E+00
  0.00000000E+00  0.00000000E+00  0.00000000E+00
  0.00000000E+00  0.00000000E+00  0.00000000E+00
  0.00000000E+00  0.00000000E+00  0.00000000E+00
  0.00000000E+00  0.00000000E+00  0.00000000E+00
  0.00000000E+00  0.00000000E+00  0.00000000E+00
  0.00000000E+00  0.00000000E+00  0.00000000E+00
  0.00000000E+00  0.00000000E+00  0.00000000E+00
  0.00000000E+00  0.00000000E+00  0.00000000E+00
  0.00000000E+00  0.00000000E+00  0.00000000E+00
  0.00000000E+00  0.00000000E+00  0.00000000E+00
  0.00000000E+00  0.00000000E+00  0.00000000E+00
  0.00000000E+00  0.00000000E+00  0.00000000E+00
  0.00000000E+00  0.00000000E+00  0.00000000E+00
  0.00000000E+00  0.00000000E+00  0.00000000E+00
  0.00000000E+00  0.00000000E+00  0.00000000E+00
  0.00000000E+00  0.00000000E+00  0.00000000E+00
  0.00000000E+00  0.00000000E+00  0.00000000E+00
  0.00000000E+00  0.00000000E+00  0.00000000E+00
  0.00000000E+00  0.00000000E+00  0.00000000E+00
  0.00000000E+00  0.00000000E+00  0.00000000E+00
  0.00000000E+00  0.00000000E+00  0.00000000E+00
  0.00000000E+00  0.00000000E+00  0.00000000E+00
  0.00000000E+00  0.00000000E+00  0.00000000E+00
  0.00000000E+00  0.00000000E+00  0.00000000E+00
  0.00000000E+00  0.00000000E+00  0.00000000E+00
  0.00000000E+00  0.00000000E+00  0.00000000E+00
  0.00000000E+00  0.00000000E+00  0.00000000E+00
  0.00000000E+00  0.00000000E+00  0.00000000E+00
  0.00000000E+00  0.00000000E+00  0.00000000E+00
  0.00000000E+00  0.00000000E+00  0.00000000E+00
  0.00000000E+00  0.00000000E+00  0.00000000E+00
  0.00000000E+00  0.00000000E+00  0.00000000E+00
  0.00000000E+00  0.00000000E+00  0.00000000E+00
  0.00000000E+00  0.00000000E+00  0.00000000E+00
  0.00000000E+00  0.00000000E+00  0.00000000E+00
  0.00000000E+00  0.00000000E+00  0.00000000E+00
  0.00000000E+00  0.00000000E+00  0.00000000E+00
  0.00000000E+00  0.00000000E+00  0.00000000E+00
  0.00000000E+00  0.00000000E+00  0.00000000E+00
  0.00000000E+00  0.00000000E+00  0.00000000E+00
  0.00000000E+00  0.00000000E+00  0.00000000E+00
  0.00000000E+00  0.00000000E+00  0.00000000E+00
  0.00000000E+00  0.00000000E+00  0.00000000E+00
  0.00000000E+00  0.00000000E+00  0.00000000E+00
  0.00000000E+00  0.00000000E+00  0.00000000E+00
  0.00000000E+00  0.00000000E+00  0.00000000E+00
  0.00000000E+00  0.00000000E+00  0.00000000E+00
  0.00000000E+00  0.00000000E+00  0.00000000E+00
  0.00000000E+00  0.00000000E+00  0.00000000E+00
  0.00000000E+00  0.00000000E+00  0.00000000E+00
  0.00000000E+00  0.00000000E+00  0.00000000E+00
  0.00000000E+00  0.00000000E+00  0.00000000E+00
  0.00000000E+00  0.00000000E+00  0.00000000E+00
  0.00000000E+00  0.00000000E+00  0.00000000E+00
  0.00000000E+00  0.00000000E+00  0.00000000E+00
  0.00000000E+00  0.00000000E+00  0.00000000E+00
