Fe  Fe  H   O   S   Ni  Fe Co           
   1.00000000000000     
     5.6388600000000002    0.0000000000000000    0.0000000000000000
     0.0000000000000000   10.2679500000000008    0.0000000000000000
     0.0000000000000000    0.0000000000000000   41.0286899999999974
   Fe   Fe   H    O    S    Ni   Fe   Co
     6     6    12    24    16    22     1     1
Selective dynamics
Direct
  0.7408131831444910  0.1489623206799150  0.1190528857640739   T   T   T
  0.0258424714002304  0.6228249470565788  0.1431575481226472   T   T   T
  0.4274114075943046  0.1403138114414281  0.1792010190940812   T   T   T
  0.6826249012874636  0.6357817318090883  0.1993636380574779   T   T   T
  0.1038487833953477  0.1278646323757310  0.2343135043347690   T   T   T
  0.3827442068746164  0.6529064645252043  0.2613320851551694   T   T   T
  0.2401606103230892  0.3343852318026019  0.1195060985073360   T   T   T
  0.5275692684540071  0.8588613536674797  0.1428214507847267   T   T   T
  0.9257531708934544  0.3453235002495669  0.1803024286339223   T   T   T
  0.1829618020865822  0.8463863528182369  0.1980003599842914   T   T   T
  0.6128841416443197  0.3555903952450970  0.2395397556184591   T   T   T
  0.8738242279094500  0.8478567488523876  0.2593186901759688   T   T   T
  0.7609410291672334  0.3999006736306979  0.1216380965699938   T   T   T
  0.2618436452496171  0.0831553795886559  0.1211337474493789   T   T   T
  0.9495241630431299  0.9087118431972355  0.1257822449901295   T   T   T
  0.4489745758225941  0.5735903131558485  0.1261168332833142   T   T   T
  0.9517383218768710  0.0846825692387583  0.1782497650968602   T   T   T
  0.4641711888011729  0.4038056224589678  0.1799156737431541   T   T   T
  0.1602695279711736  0.5887243518161573  0.2008862694916121   T   T   T
  0.6550049681952831  0.8947148108334256  0.2000873638018942   T   T   T
  0.1758349166524548  0.4092739299648885  0.2540129392456162   T   T   T
  0.6454023853404964  0.0841941295312172  0.2426858787021460   T   T   T
  0.8504497155277848  0.6003715776663406  0.2571723605194350   T   T   T
  0.3409057970402448  0.9054447586975929  0.2570337541884141   T   T   T
  0.0495292807878480  0.1921200939619219  0.1076081454732401   T   T   T
  0.5489084812084121  0.2908663110549654  0.1076589765530249   T   T   T
  0.7927305449306212  0.9462556133134090  0.1213175572762035   T   T   T
  0.2920800441480191  0.5366399105671368  0.1213845669799851   T   T   T
  0.9050146393082781  0.4360999774889126  0.1332754960583453   T   T   T
  0.4051957827330246  0.0467622411878404  0.1329136338646557   T   T   T
  0.2013243687134953  0.7859822217339929  0.1512467953259757   T   T   T
  0.7025538618326168  0.6972707373759909  0.1511773718269676   T   T   T
  0.7514407774426943  0.1872077991082018  0.1669818079808896   T   T   T
  0.2505658016513060  0.2959543241316025  0.1671243856370724   T   T   T
  0.0240894349929983  0.5501641440922512  0.1880772400142739   T   T   T
  0.5159868671973172  0.9329950925791900  0.1875714425823493   T   T   T
  0.0922984973739033  0.0444708499406037  0.1902560024510883   T   T   T
  0.6041103578580925  0.4409240754391351  0.1918012630320532   T   T   T
  0.8589823980126901  0.7987571179209796  0.2132495376112940   T   T   T
  0.3583339694834019  0.6923128858492893  0.2143828742169256   T   T   T
  0.4304673037151578  0.1764118041393859  0.2273926244928737   T   T   T
  0.9480837080809301  0.2915498043454919  0.2270102828143904   T   T   T
  0.7010755552288944  0.5662689866655564  0.2464780968814985   T   T   T
  0.1891126851946641  0.9367502427701948  0.2462389737514047   T   T   T
  0.3274581679445625  0.4453801387368816  0.2621020660426462   T   T   T
  0.7968435717259608  0.0502021721071772  0.2536815359380195   T   T   T
  0.0508569441237528  0.6888198881742341  0.2729833183770852   T   T   T
  0.5494708087644415  0.8202473638513913  0.2732690351791489   T   T   T
  0.9646295856384168  0.3493655185931589  0.3099202692019926   T   T   T
  0.5324626114943839  0.6022501387038574  0.3203028431063603   T   T   T
  0.0589169707061087  0.8670897748784651  0.3241049330033505   T   T   T
  0.5486973970343212  0.1060407852298566  0.3220762649948442   T   T   T
  0.4649070122653778  0.3583670053429625  0.3750119126696467   T   T   T
  0.0069678009864181  0.5936815812426369  0.3737410571978625   T   T   T
  0.5403208911699341  0.8531214265082635  0.3735106079638179   T   T   T
  0.9969274350339915  0.1100789557114437  0.3825952503953708   T   T   T
  0.9872832626336437  0.3612185432419528  0.4331867674131161   T   T   T
  0.5015352148904172  0.6077110167105002  0.4248905057788802   T   T   T
  0.0524458383627195  0.8546815863377193  0.4256857412613773   T   T   T
  0.4951914551614406  0.0968249675002689  0.4295129126730916   T   T   T
  0.4843659749972534  0.3500605642611863  0.4819619899815319   T   T   T
  0.9425738635788259  0.6300234879242426  0.4878754306654013   T   T   T
  0.5571004748593916  0.9043315126819236  0.5003394650952859   T   T   T
  0.9796274610396790  0.1020034247481293  0.4842719401118915   T   T   T
  0.2719766476068313  0.7134073690198806  0.3480910868173248   T   T   T
  0.2089406204507216  0.6855439983171919  0.4531375411990670   T   T   T
  0.6219501977764559  0.1691906978660778  0.3769895707298006   T   T   T
  0.5886873294375271  0.1337276266852945  0.4825251719540262   T   T   T
  0.8007259848104451  0.9836119449312374  0.3487656517150484   T   T   T
  0.7343028022604198  0.4913640618275585  0.4577666882469886   T   T   T
  0.3413042551670178  0.4179411184605355  0.3114357167070327   T   T   T
  0.1491350647793694  0.4564321649534299  0.4766296232097035   T   T   T
  0.7891337456992732  0.9471456761650069  0.4557769012555850   T   T   T
  0.8211806429013251  0.1758706830415384  0.2890214641813989   T   T   T
  0.9193756213125158  0.6604379276163617  0.3178125713582716   T   T   T
  0.4321016217719959  0.8891080559810399  0.4239604253747341   T   T   T
  0.6386963727169119  0.6516666250830233  0.3710421046774785   T   T   T
  0.2291171421877992  0.2213376171235469  0.4572252318270380   T   T   T
  0.4525617674676760  0.8937701999601311  0.3168254102046191   T   T   T
  0.6219984082467219  0.7301539826967522  0.4689967059780278   T   T   T
  0.8563222193330315  0.6784933758517375  0.4193307156562973   T   T   T
  0.7429367677707532  0.4483815482326367  0.3456294406773351   T   T   T
  0.0831376123461917  0.3920537736220010  0.3821160781347044   T   T   T
  0.3837076431980379  0.4066068153015052  0.4272164315440422   T   T   T
  0.1742411667882180  0.9203638802551318  0.3749155998676915   T   T   T
  0.8613090594117773  0.1622299527099185  0.4308119839781415   T   T   T
  0.2005227196918060  0.2071572421214880  0.3404322250354895   T   T   T
  0.2037150748663453  0.9174451257215496  0.4775463464800495   T   T   T
 
  0.00000000E+00  0.00000000E+00  0.00000000E+00
  0.00000000E+00  0.00000000E+00  0.00000000E+00
  0.00000000E+00  0.00000000E+00  0.00000000E+00
  0.00000000E+00  0.00000000E+00  0.00000000E+00
  0.00000000E+00  0.00000000E+00  0.00000000E+00
  0.00000000E+00  0.00000000E+00  0.00000000E+00
  0.00000000E+00  0.00000000E+00  0.00000000E+00
  0.00000000E+00  0.00000000E+00  0.00000000E+00
  0.00000000E+00  0.00000000E+00  0.00000000E+00
  0.00000000E+00  0.00000000E+00  0.00000000E+00
  0.00000000E+00  0.00000000E+00  0.00000000E+00
  0.00000000E+00  0.00000000E+00  0.00000000E+00
  0.00000000E+00  0.00000000E+00  0.00000000E+00
  0.00000000E+00  0.00000000E+00  0.00000000E+00
  0.00000000E+00  0.00000000E+00  0.00000000E+00
  0.00000000E+00  0.00000000E+00  0.00000000E+00
  0.00000000E+00  0.00000000E+00  0.00000000E+00
  0.00000000E+00  0.00000000E+00  0.00000000E+00
  0.00000000E+00  0.00000000E+00  0.00000000E+00
  0.00000000E+00  0.00000000E+00  0.00000000E+00
  0.00000000E+00  0.00000000E+00  0.00000000E+00
  0.00000000E+00  0.00000000E+00  0.00000000E+00
  0.00000000E+00  0.00000000E+00  0.00000000E+00
  0.00000000E+00  0.00000000E+00  0.00000000E+00
  0.00000000E+00  0.00000000E+00  0.00000000E+00
  0.00000000E+00  0.00000000E+00  0.00000000E+00
  0.00000000E+00  0.00000000E+00  0.00000000E+00
  0.00000000E+00  0.00000000E+00  0.00000000E+00
  0.00000000E+00  0.00000000E+00  0.00000000E+00
  0.00000000E+00  0.00000000E+00  0.00000000E+00
  0.00000000E+00  0.00000000E+00  0.00000000E+00
  0.00000000E+00  0.00000000E+00  0.00000000E+00
  0.00000000E+00  0.00000000E+00  0.00000000E+00
  0.00000000E+00  0.00000000E+00  0.00000000E+00
  0.00000000E+00  0.00000000E+00  0.00000000E+00
  0.00000000E+00  0.00000000E+00  0.00000000E+00
  0.00000000E+00  0.00000000E+00  0.00000000E+00
  0.00000000E+00  0.00000000E+00  0.00000000E+00
  0.00000000E+00  0.00000000E+00  0.00000000E+00
  0.00000000E+00  0.00000000E+00  0.00000000E+00
  0.00000000E+00  0.00000000E+00  0.00000000E+00
  0.00000000E+00  0.00000000E+00  0.00000000E+00
  0.00000000E+00  0.00000000E+00  0.00000000E+00
  0.00000000E+00  0.00000000E+00  0.00000000E+00
  0.00000000E+00  0.00000000E+00  0.00000000E+00
  0.00000000E+00  0.00000000E+00  0.00000000E+00
  0.00000000E+00  0.00000000E+00  0.00000000E+00
  0.00000000E+00  0.00000000E+00  0.00000000E+00
  0.00000000E+00  0.00000000E+00  0.00000000E+00
  0.00000000E+00  0.00000000E+00  0.00000000E+00
  0.00000000E+00  0.00000000E+00  0.00000000E+00
  0.00000000E+00  0.00000000E+00  0.00000000E+00
  0.00000000E+00  0.00000000E+00  0.00000000E+00
  0.00000000E+00  0.00000000E+00  0.00000000E+00
  0.00000000E+00  0.00000000E+00  0.00000000E+00
  0.00000000E+00  0.00000000E+00  0.00000000E+00
  0.00000000E+00  0.00000000E+00  0.00000000E+00
  0.00000000E+00  0.00000000E+00  0.00000000E+00
  0.00000000E+00  0.00000000E+00  0.00000000E+00
  0.00000000E+00  0.00000000E+00  0.00000000E+00
  0.00000000E+00  0.00000000E+00  0.00000000E+00
  0.00000000E+00  0.00000000E+00  0.00000000E+00
  0.00000000E+00  0.00000000E+00  0.00000000E+00
  0.00000000E+00  0.00000000E+00  0.00000000E+00
  0.00000000E+00  0.00000000E+00  0.00000000E+00
  0.00000000E+00  0.00000000E+00  0.00000000E+00
  0.00000000E+00  0.00000000E+00  0.00000000E+00
  0.00000000E+00  0.00000000E+00  0.00000000E+00
  0.00000000E+00  0.00000000E+00  0.00000000E+00
  0.00000000E+00  0.00000000E+00  0.00000000E+00
  0.00000000E+00  0.00000000E+00  0.00000000E+00
  0.00000000E+00  0.00000000E+00  0.00000000E+00
  0.00000000E+00  0.00000000E+00  0.00000000E+00
  0.00000000E+00  0.00000000E+00  0.00000000E+00
  0.00000000E+00  0.00000000E+00  0.00000000E+00
  0.00000000E+00  0.00000000E+00  0.00000000E+00
  0.00000000E+00  0.00000000E+00  0.00000000E+00
  0.00000000E+00  0.00000000E+00  0.00000000E+00
  0.00000000E+00  0.00000000E+00  0.00000000E+00
  0.00000000E+00  0.00000000E+00  0.00000000E+00
  0.00000000E+00  0.00000000E+00  0.00000000E+00
  0.00000000E+00  0.00000000E+00  0.00000000E+00
  0.00000000E+00  0.00000000E+00  0.00000000E+00
  0.00000000E+00  0.00000000E+00  0.00000000E+00
  0.00000000E+00  0.00000000E+00  0.00000000E+00
  0.00000000E+00  0.00000000E+00  0.00000000E+00
  0.00000000E+00  0.00000000E+00  0.00000000E+00
  0.00000000E+00  0.00000000E+00  0.00000000E+00
