Fe  Fe  H   O   S   Ni  Fe Co           
   1.00000000000000     
     5.6388600000000002    0.0000000000000000    0.0000000000000000
     0.0000000000000000   10.2679500000000008    0.0000000000000000
     0.0000000000000000    0.0000000000000000   41.0286899999999974
   Fe   Fe   H    O    S    Ni   Fe   Co
     6     6    12    24    16    22     1     1
Selective dynamics
Direct
  0.7541283613461154  0.1457082695614727  0.1200955776125422   T   T   T
  0.0326249535461565  0.6187437784115266  0.1433747498409235   T   T   T
  0.4405077519846387  0.1359957574487845  0.1801374529477361   T   T   T
  0.6908387984378670  0.6309855645873936  0.1996743622409754   T   T   T
  0.1182826793505696  0.1250270390193550  0.2351598508794125   T   T   T
  0.3864897512146081  0.6414586401570777  0.2612143351285310   T   T   T
  0.2530803757915109  0.3314392181463820  0.1206984391454680   T   T   T
  0.5367634008474743  0.8552523972311039  0.1428879124970949   T   T   T
  0.9374522727172864  0.3428712044505897  0.1814017722276031   T   T   T
  0.1911882934689044  0.8418841142165486  0.1974160902692955   T   T   T
  0.6203967650706816  0.3498993732088188  0.2405020022356937   T   T   T
  0.8959925927776871  0.8426979481560968  0.2593047086910621   T   T   T
  0.7725522376575737  0.3948392027704828  0.1223353253305167   T   T   T
  0.2736174690965991  0.0816019971867654  0.1218356191853176   T   T   T
  0.9594709108873466  0.9052905170856903  0.1264640254162633   T   T   T
  0.4581038746511031  0.5714588063019355  0.1274103749240010   T   T   T
  0.9631361436666264  0.0839036734373495  0.1791631785137819   T   T   T
  0.4740367850194360  0.3983272954941837  0.1807379957947760   T   T   T
  0.1698828797605298  0.5866808645060602  0.2008199774524005   T   T   T
  0.6646062762902429  0.8894724442158699  0.2002378278347177   T   T   T
  0.1794203449344114  0.3989599885161134  0.2542176943826591   T   T   T
  0.6708317162613983  0.0834739942552213  0.2457697294581965   T   T   T
  0.8552272774435237  0.5933857473724575  0.2581340876181100   T   T   T
  0.3631013244954049  0.8984399552425344  0.2537347461685489   T   T   T
  0.0639260477366104  0.1881551703296946  0.1087163996267468   T   T   T
  0.5633940997019661  0.2887766255025994  0.1090589311464061   T   T   T
  0.8027055978685672  0.9428446752875017  0.1217933325239325   T   T   T
  0.3023555675505343  0.5336406239308088  0.1222101797744734   T   T   T
  0.9178092520464874  0.4317889828871486  0.1337564624380498   T   T   T
  0.4175005925440865  0.0443318020060536  0.1334984546123371   T   T   T
  0.2062089009178671  0.7838969655893674  0.1509499651183743   T   T   T
  0.7074257443668155  0.6920913467207309  0.1514282312505882   T   T   T
  0.7649191599959367  0.1830862378132125  0.1681551094553647   T   T   T
  0.2629632325081894  0.2920799026648874  0.1683447322901115   T   T   T
  0.0315847532194721  0.5468136610088457  0.1883695017018808   T   T   T
  0.5262741692985738  0.9282925309694923  0.1876611653355960   T   T   T
  0.1033153742725042  0.0422579914634227  0.1910969220966356   T   T   T
  0.6140670914638535  0.4360271336214293  0.1925409803179550   T   T   T
  0.8710406367945449  0.7941267222852596  0.2131296027219766   T   T   T
  0.3661859314708064  0.6859913557825476  0.2136432500597478   T   T   T
  0.4459319679943146  0.1712640711434788  0.2285084789446163   T   T   T
  0.9601180764043666  0.2885363793597120  0.2280962553627818   T   T   T
  0.7089008377595274  0.5580261103521384  0.2470547511486675   T   T   T
  0.2033820733820889  0.9326098031955318  0.2459021011532281   T   T   T
  0.3282619785477092  0.4364696596493759  0.2630861584540987   T   T   T
  0.8207260297011780  0.0517435002729819  0.2572208935327606   T   T   T
  0.0595208995946967  0.6846671056515390  0.2737473487935956   T   T   T
  0.5648091721648202  0.8183066540067883  0.2699211891042022   T   T   T
  0.9754490342823116  0.3461191024052387  0.3181576798732895   T   T   T
  0.5171017423651085  0.6156705762218063  0.3199259981291186   T   T   T
  0.0296528941539884  0.8713037568462050  0.3249377632952008   T   T   T
  0.5361483071718199  0.1173032063871605  0.3224494953912702   T   T   T
  0.4645077974644296  0.3653822290852049  0.3732461173039863   T   T   T
  0.9983782907765790  0.6039425468945157  0.3739334455795648   T   T   T
  0.5083651788744838  0.8623314582142234  0.3768587169201677   T   T   T
  0.9941925148217970  0.1213535067929450  0.3775908199072189   T   T   T
  0.9875367535044559  0.3658213715792805  0.4278296767001817   T   T   T
  0.4957490248425824  0.6079509439003470  0.4263243286174591   T   T   T
  0.9943872196609373  0.8592873205130951  0.4260876568990503   T   T   T
  0.4846252901007461  0.1155013186117717  0.4268345294950188   T   T   T
  0.4672691351402055  0.3648701299983436  0.4850267694972046   T   T   T
  0.9612692532721895  0.6218441494095585  0.4830543656840867   T   T   T
  0.4664475527334030  0.8666928350761217  0.4817227563613952   T   T   T
  0.9619243212412639  0.1142012208039092  0.4823936067185958   T   T   T
  0.6088232083189757  0.6789062505554835  0.4762180539146087   T   T   T
  0.7261379084114957  0.4714145252259401  0.4554408342847233   T   T   T
  0.2300819314906783  0.7199409942581709  0.4534216358275063   T   T   T
  0.3423893692109987  0.4202506992264874  0.3126565164871999   T   T   T
  0.7260767787483904  0.4674841179478669  0.3449303000203919   T   T   T
  0.8400397919498270  0.1784719393292375  0.2931234098911575   T   T   T
  0.7312790931672012  0.9734685526879631  0.4533985813603398   T   T   T
  0.6123631342689241  0.1740957522429461  0.3754602326191200   T   T   T
  0.3701530574269446  0.4124137898211609  0.4242739106686493   T   T   T
  0.2330065684581689  0.2148763565059032  0.3428570585459793   T   T   T
  0.6092487549903474  0.1785028602606153  0.4764990582034100   T   T   T
  0.8742511731499422  0.6595777604226711  0.4257257640763702   T   T   T
  0.1288966310552688  0.4421974718896043  0.4753824098988476   T   T   T
  0.6320009843122065  0.6628266462552026  0.3767178301405102   T   T   T
  0.2256626199459011  0.2262945038128665  0.4549056471713959   T   T   T
  0.3708026047992691  0.9153633058109709  0.4260192649433889   T   T   T
  0.7685442248085488  0.9844334038688667  0.3506730555948728   T   T   T
  0.2707433610647946  0.7260378704638630  0.3500634621403448   T   T   T
  0.1365251206643585  0.9253455010374106  0.3768098901899062   T   T   T
  0.9153903992361923  0.6640828424478725  0.3190776589633900   T   T   T
  0.8607022312406628  0.1695826040891296  0.4263750714100939   T   T   T
  0.1127697975588293  0.9282963619266602  0.4759026069219449   T   T   T
  0.4555978184042515  0.8921664995249959  0.3105930263374850   T   T   T
  0.0794947028883002  0.3951039151740084  0.3752787612557960   T   T   T
 
  0.00000000E+00  0.00000000E+00  0.00000000E+00
  0.00000000E+00  0.00000000E+00  0.00000000E+00
  0.00000000E+00  0.00000000E+00  0.00000000E+00
  0.00000000E+00  0.00000000E+00  0.00000000E+00
  0.00000000E+00  0.00000000E+00  0.00000000E+00
  0.00000000E+00  0.00000000E+00  0.00000000E+00
  0.00000000E+00  0.00000000E+00  0.00000000E+00
  0.00000000E+00  0.00000000E+00  0.00000000E+00
  0.00000000E+00  0.00000000E+00  0.00000000E+00
  0.00000000E+00  0.00000000E+00  0.00000000E+00
  0.00000000E+00  0.00000000E+00  0.00000000E+00
  0.00000000E+00  0.00000000E+00  0.00000000E+00
  0.00000000E+00  0.00000000E+00  0.00000000E+00
  0.00000000E+00  0.00000000E+00  0.00000000E+00
  0.00000000E+00  0.00000000E+00  0.00000000E+00
  0.00000000E+00  0.00000000E+00  0.00000000E+00
  0.00000000E+00  0.00000000E+00  0.00000000E+00
  0.00000000E+00  0.00000000E+00  0.00000000E+00
  0.00000000E+00  0.00000000E+00  0.00000000E+00
  0.00000000E+00  0.00000000E+00  0.00000000E+00
  0.00000000E+00  0.00000000E+00  0.00000000E+00
  0.00000000E+00  0.00000000E+00  0.00000000E+00
  0.00000000E+00  0.00000000E+00  0.00000000E+00
  0.00000000E+00  0.00000000E+00  0.00000000E+00
  0.00000000E+00  0.00000000E+00  0.00000000E+00
  0.00000000E+00  0.00000000E+00  0.00000000E+00
  0.00000000E+00  0.00000000E+00  0.00000000E+00
  0.00000000E+00  0.00000000E+00  0.00000000E+00
  0.00000000E+00  0.00000000E+00  0.00000000E+00
  0.00000000E+00  0.00000000E+00  0.00000000E+00
  0.00000000E+00  0.00000000E+00  0.00000000E+00
  0.00000000E+00  0.00000000E+00  0.00000000E+00
  0.00000000E+00  0.00000000E+00  0.00000000E+00
  0.00000000E+00  0.00000000E+00  0.00000000E+00
  0.00000000E+00  0.00000000E+00  0.00000000E+00
  0.00000000E+00  0.00000000E+00  0.00000000E+00
  0.00000000E+00  0.00000000E+00  0.00000000E+00
  0.00000000E+00  0.00000000E+00  0.00000000E+00
  0.00000000E+00  0.00000000E+00  0.00000000E+00
  0.00000000E+00  0.00000000E+00  0.00000000E+00
  0.00000000E+00  0.00000000E+00  0.00000000E+00
  0.00000000E+00  0.00000000E+00  0.00000000E+00
  0.00000000E+00  0.00000000E+00  0.00000000E+00
  0.00000000E+00  0.00000000E+00  0.00000000E+00
  0.00000000E+00  0.00000000E+00  0.00000000E+00
  0.00000000E+00  0.00000000E+00  0.00000000E+00
  0.00000000E+00  0.00000000E+00  0.00000000E+00
  0.00000000E+00  0.00000000E+00  0.00000000E+00
  0.00000000E+00  0.00000000E+00  0.00000000E+00
  0.00000000E+00  0.00000000E+00  0.00000000E+00
  0.00000000E+00  0.00000000E+00  0.00000000E+00
  0.00000000E+00  0.00000000E+00  0.00000000E+00
  0.00000000E+00  0.00000000E+00  0.00000000E+00
  0.00000000E+00  0.00000000E+00  0.00000000E+00
  0.00000000E+00  0.00000000E+00  0.00000000E+00
  0.00000000E+00  0.00000000E+00  0.00000000E+00
  0.00000000E+00  0.00000000E+00  0.00000000E+00
  0.00000000E+00  0.00000000E+00  0.00000000E+00
  0.00000000E+00  0.00000000E+00  0.00000000E+00
  0.00000000E+00  0.00000000E+00  0.00000000E+00
  0.00000000E+00  0.00000000E+00  0.00000000E+00
  0.00000000E+00  0.00000000E+00  0.00000000E+00
  0.00000000E+00  0.00000000E+00  0.00000000E+00
  0.00000000E+00  0.00000000E+00  0.00000000E+00
  0.00000000E+00  0.00000000E+00  0.00000000E+00
  0.00000000E+00  0.00000000E+00  0.00000000E+00
  0.00000000E+00  0.00000000E+00  0.00000000E+00
  0.00000000E+00  0.00000000E+00  0.00000000E+00
  0.00000000E+00  0.00000000E+00  0.00000000E+00
  0.00000000E+00  0.00000000E+00  0.00000000E+00
  0.00000000E+00  0.00000000E+00  0.00000000E+00
  0.00000000E+00  0.00000000E+00  0.00000000E+00
  0.00000000E+00  0.00000000E+00  0.00000000E+00
  0.00000000E+00  0.00000000E+00  0.00000000E+00
  0.00000000E+00  0.00000000E+00  0.00000000E+00
  0.00000000E+00  0.00000000E+00  0.00000000E+00
  0.00000000E+00  0.00000000E+00  0.00000000E+00
  0.00000000E+00  0.00000000E+00  0.00000000E+00
  0.00000000E+00  0.00000000E+00  0.00000000E+00
  0.00000000E+00  0.00000000E+00  0.00000000E+00
  0.00000000E+00  0.00000000E+00  0.00000000E+00
  0.00000000E+00  0.00000000E+00  0.00000000E+00
  0.00000000E+00  0.00000000E+00  0.00000000E+00
  0.00000000E+00  0.00000000E+00  0.00000000E+00
  0.00000000E+00  0.00000000E+00  0.00000000E+00
  0.00000000E+00  0.00000000E+00  0.00000000E+00
  0.00000000E+00  0.00000000E+00  0.00000000E+00
  0.00000000E+00  0.00000000E+00  0.00000000E+00
