Fe  Fe  H   O   S   Ni  Fe Co           
   1.00000000000000     
     5.6388600000000002    0.0000000000000000    0.0000000000000000
     0.0000000000000000   10.2679500000000008    0.0000000000000000
     0.0000000000000000    0.0000000000000000   41.0286899999999974
   Fe   Fe   H    O    S    Ni   Fe   Co
     6     6    12    24    16    22     1     1
Selective dynamics
Direct
  0.7252222479467226  0.1576224169197828  0.1196094281965259   T   T   T
  0.0103392359965300  0.6310853484783190  0.1426435524243614   T   T   T
  0.4082752149173800  0.1476265138839815  0.1796748791553501   T   T   T
  0.6641910161715351  0.6436539871198383  0.1981234455578392   T   T   T
  0.0813755272408368  0.1385022492488344  0.2355275572882369   T   T   T
  0.3658279148245326  0.6594081306532493  0.2599463343177938   T   T   T
  0.2244336251381726  0.3427601531003625  0.1198607021910645   T   T   T
  0.5102819869622686  0.8681667513699547  0.1423574246085366   T   T   T
  0.9077104096789178  0.3534450040300707  0.1803326049803731   T   T   T
  0.1659926787059393  0.8564239608395727  0.1974000389938503   T   T   T
  0.5839911636872259  0.3630730306443926  0.2384690599210181   T   T   T
  0.8563074379178988  0.8535001866268495  0.2583060886484311   T   T   T
  0.7454005471269516  0.4072700820422762  0.1216459436981580   T   T   T
  0.2449304332606013  0.0928756756831348  0.1212753275451923   T   T   T
  0.9324629292087083  0.9178182878809330  0.1253563012821275   T   T   T
  0.4327941503268583  0.5823991585043173  0.1255523199039872   T   T   T
  0.9356394295096033  0.0909975944070864  0.1785319576816339   T   T   T
  0.4450621900491543  0.4116191025637850  0.1790644548181529   T   T   T
  0.1435536317378705  0.5982958522965026  0.2003590037046792   T   T   T
  0.6390060736290062  0.9021605981668411  0.1996876716036204   T   T   T
  0.1393974448608347  0.4171500944891496  0.2491011299764755   T   T   T
  0.6164490501307129  0.0916422879872476  0.2421817910050784   T   T   T
  0.8285087177099211  0.6047555663951787  0.2564551277715101   T   T   T
  0.3184210487559758  0.9136638237347526  0.2579151429515704   T   T   T
  0.0354307451070974  0.1997259798964369  0.1081884021715062   T   T   T
  0.5348234805631076  0.3004106461598340  0.1084477218536697   T   T   T
  0.7756878964729043  0.9553688119958755  0.1209388691598680   T   T   T
  0.2759821405858700  0.5449846829373849  0.1209835182778139   T   T   T
  0.8905180355826552  0.4435698132072671  0.1331891978187653   T   T   T
  0.3890799803837228  0.0559304989626903  0.1329641048017733   T   T   T
  0.1841118280987604  0.7948407602925239  0.1507331642151865   T   T   T
  0.6848541890908150  0.7053324425148298  0.1504809850958764   T   T   T
  0.7344246198486825  0.1947599505486279  0.1674884662295545   T   T   T
  0.2336905468543483  0.3036687091732947  0.1674583919958529   T   T   T
  0.0089951952011558  0.5586318612623451  0.1874895659210429   T   T   T
  0.5001900555968504  0.9409568046512008  0.1872408996476365   T   T   T
  0.0763835727466021  0.0512135395758820  0.1904402976275042   T   T   T
  0.5849862252470668  0.4497838237144022  0.1908219429806309   T   T   T
  0.8422269136218374  0.8058402702574339  0.2124678891985919   T   T   T
  0.3427059126277468  0.7024833041384161  0.2134049990759098   T   T   T
  0.4139071286695527  0.1837482993984181  0.2277227785489453   T   T   T
  0.9261817048231508  0.3037030805236748  0.2273140463243410   T   T   T
  0.6800586595580340  0.5712147648615191  0.2457759122580843   T   T   T
  0.1696451086145342  0.9447297353981446  0.2469450858649796   T   T   T
  0.2875235832287911  0.4554447349873614  0.2583335993136707   T   T   T
  0.7691131295077527  0.0539899620671831  0.2527427358882723   T   T   T
  0.0397791231575601  0.6972056791818223  0.2715053064777747   T   T   T
  0.5396712052494247  0.8204509323708948  0.2737637171636037   T   T   T
  0.9817580278257925  0.3221712667459637  0.3156834827203909   T   T   T
  0.5751244765939069  0.5865461325458436  0.3199789082044597   T   T   T
  0.0736921323538539  0.8581924420691061  0.3265294817652492   T   T   T
  0.5550391016156214  0.1001657786270734  0.3230519131302999   T   T   T
  0.4509704153250467  0.3484400722053023  0.3824346146738002   T   T   T
  0.0626052778793393  0.5772716054134855  0.3694801567184108   T   T   T
  0.5554817210035433  0.8392999951934953  0.3755075512145739   T   T   T
  0.0388781104214025  0.1066498068045974  0.3782895973352740   T   T   T
  0.0039161563930445  0.3588051162637792  0.4406055187117294   T   T   T
  0.5870797371559641  0.5985750699816291  0.4255178030831868   T   T   T
  0.0348463799285756  0.8337636842706557  0.4251601749236381   T   T   T
  0.5316625840377280  0.0984224716401739  0.4293331090404160   T   T   T
  0.5210493373257510  0.3436768585628088  0.4922135061358486   T   T   T
  0.0326275683186673  0.6320091585787327  0.4942458957924540   T   T   T
  0.4990983407147718  0.8543840841744608  0.4833826629236875   T   T   T
  0.0275299630639501  0.0810222796356308  0.4797283896940694   T   T   T
  0.9765331329543286  0.6231010496606481  0.4198156146635342   T   T   T
  0.1972135234881268  0.4471782604742345  0.4828532234248632   T   T   T
  0.2882349069766452  0.2254552202536599  0.4588419291613189   T   T   T
  0.3264227347927108  0.4535604768172626  0.4245456843348330   T   T   T
  0.3219250184952145  0.7059862920370430  0.3475345274617979   T   T   T
  0.4617154557347106  0.8921722623303859  0.3173682454555996   T   T   T
  0.7533042200561936  0.4824835147152701  0.4662013473344699   T   T   T
  0.8058840611581745  0.9773138397011123  0.3503794831651003   T   T   T
  0.4103114314193119  0.8875275302981461  0.4272736664400223   T   T   T
  0.6509601739173861  0.1735237957494003  0.3781654215547655   T   T   T
  0.6684358131625496  0.1587772602773073  0.4797012188076612   T   T   T
  0.3175573336144640  0.6711491010494721  0.4578243267875035   T   T   T
  0.9588047124507062  0.6511604672166053  0.3169082172167804   T   T   T
  0.6841374409188872  0.6291313479470101  0.3729134238310265   T   T   T
  0.1821148612032157  0.9049416073429200  0.3765208961963312   T   T   T
  0.2807078283940057  0.4526014701639431  0.3067277947096083   T   T   T
  0.1242954403542479  0.8686087236394370  0.4778497032656837   T   T   T
  0.7697218906695849  0.9545328226917444  0.4527186983904474   T   T   T
  0.8200374436455254  0.1694464748817598  0.2884440079447715   T   T   T
  0.2783522479721628  0.2255733403261192  0.3440054998471750   T   T   T
  0.7574860605596582  0.7213696088599831  0.4647020064809672   T   T   T
  0.6599389196956341  0.3954869977808346  0.3413056745908086   T   T   T
  0.9931328304557764  0.3523389503947578  0.3801829860511572   T   T   T
  0.9149141020216307  0.1576118175343094  0.4286507506798580   T   T   T
 
  0.00000000E+00  0.00000000E+00  0.00000000E+00
  0.00000000E+00  0.00000000E+00  0.00000000E+00
  0.00000000E+00  0.00000000E+00  0.00000000E+00
  0.00000000E+00  0.00000000E+00  0.00000000E+00
  0.00000000E+00  0.00000000E+00  0.00000000E+00
  0.00000000E+00  0.00000000E+00  0.00000000E+00
  0.00000000E+00  0.00000000E+00  0.00000000E+00
  0.00000000E+00  0.00000000E+00  0.00000000E+00
  0.00000000E+00  0.00000000E+00  0.00000000E+00
  0.00000000E+00  0.00000000E+00  0.00000000E+00
  0.00000000E+00  0.00000000E+00  0.00000000E+00
  0.00000000E+00  0.00000000E+00  0.00000000E+00
  0.00000000E+00  0.00000000E+00  0.00000000E+00
  0.00000000E+00  0.00000000E+00  0.00000000E+00
  0.00000000E+00  0.00000000E+00  0.00000000E+00
  0.00000000E+00  0.00000000E+00  0.00000000E+00
  0.00000000E+00  0.00000000E+00  0.00000000E+00
  0.00000000E+00  0.00000000E+00  0.00000000E+00
  0.00000000E+00  0.00000000E+00  0.00000000E+00
  0.00000000E+00  0.00000000E+00  0.00000000E+00
  0.00000000E+00  0.00000000E+00  0.00000000E+00
  0.00000000E+00  0.00000000E+00  0.00000000E+00
  0.00000000E+00  0.00000000E+00  0.00000000E+00
  0.00000000E+00  0.00000000E+00  0.00000000E+00
  0.00000000E+00  0.00000000E+00  0.00000000E+00
  0.00000000E+00  0.00000000E+00  0.00000000E+00
  0.00000000E+00  0.00000000E+00  0.00000000E+00
  0.00000000E+00  0.00000000E+00  0.00000000E+00
  0.00000000E+00  0.00000000E+00  0.00000000E+00
  0.00000000E+00  0.00000000E+00  0.00000000E+00
  0.00000000E+00  0.00000000E+00  0.00000000E+00
  0.00000000E+00  0.00000000E+00  0.00000000E+00
  0.00000000E+00  0.00000000E+00  0.00000000E+00
  0.00000000E+00  0.00000000E+00  0.00000000E+00
  0.00000000E+00  0.00000000E+00  0.00000000E+00
  0.00000000E+00  0.00000000E+00  0.00000000E+00
  0.00000000E+00  0.00000000E+00  0.00000000E+00
  0.00000000E+00  0.00000000E+00  0.00000000E+00
  0.00000000E+00  0.00000000E+00  0.00000000E+00
  0.00000000E+00  0.00000000E+00  0.00000000E+00
  0.00000000E+00  0.00000000E+00  0.00000000E+00
  0.00000000E+00  0.00000000E+00  0.00000000E+00
  0.00000000E+00  0.00000000E+00  0.00000000E+00
  0.00000000E+00  0.00000000E+00  0.00000000E+00
  0.00000000E+00  0.00000000E+00  0.00000000E+00
  0.00000000E+00  0.00000000E+00  0.00000000E+00
  0.00000000E+00  0.00000000E+00  0.00000000E+00
  0.00000000E+00  0.00000000E+00  0.00000000E+00
  0.00000000E+00  0.00000000E+00  0.00000000E+00
  0.00000000E+00  0.00000000E+00  0.00000000E+00
  0.00000000E+00  0.00000000E+00  0.00000000E+00
  0.00000000E+00  0.00000000E+00  0.00000000E+00
  0.00000000E+00  0.00000000E+00  0.00000000E+00
  0.00000000E+00  0.00000000E+00  0.00000000E+00
  0.00000000E+00  0.00000000E+00  0.00000000E+00
  0.00000000E+00  0.00000000E+00  0.00000000E+00
  0.00000000E+00  0.00000000E+00  0.00000000E+00
  0.00000000E+00  0.00000000E+00  0.00000000E+00
  0.00000000E+00  0.00000000E+00  0.00000000E+00
  0.00000000E+00  0.00000000E+00  0.00000000E+00
  0.00000000E+00  0.00000000E+00  0.00000000E+00
  0.00000000E+00  0.00000000E+00  0.00000000E+00
  0.00000000E+00  0.00000000E+00  0.00000000E+00
  0.00000000E+00  0.00000000E+00  0.00000000E+00
  0.00000000E+00  0.00000000E+00  0.00000000E+00
  0.00000000E+00  0.00000000E+00  0.00000000E+00
  0.00000000E+00  0.00000000E+00  0.00000000E+00
  0.00000000E+00  0.00000000E+00  0.00000000E+00
  0.00000000E+00  0.00000000E+00  0.00000000E+00
  0.00000000E+00  0.00000000E+00  0.00000000E+00
  0.00000000E+00  0.00000000E+00  0.00000000E+00
  0.00000000E+00  0.00000000E+00  0.00000000E+00
  0.00000000E+00  0.00000000E+00  0.00000000E+00
  0.00000000E+00  0.00000000E+00  0.00000000E+00
  0.00000000E+00  0.00000000E+00  0.00000000E+00
  0.00000000E+00  0.00000000E+00  0.00000000E+00
  0.00000000E+00  0.00000000E+00  0.00000000E+00
  0.00000000E+00  0.00000000E+00  0.00000000E+00
  0.00000000E+00  0.00000000E+00  0.00000000E+00
  0.00000000E+00  0.00000000E+00  0.00000000E+00
  0.00000000E+00  0.00000000E+00  0.00000000E+00
  0.00000000E+00  0.00000000E+00  0.00000000E+00
  0.00000000E+00  0.00000000E+00  0.00000000E+00
  0.00000000E+00  0.00000000E+00  0.00000000E+00
  0.00000000E+00  0.00000000E+00  0.00000000E+00
  0.00000000E+00  0.00000000E+00  0.00000000E+00
  0.00000000E+00  0.00000000E+00  0.00000000E+00
  0.00000000E+00  0.00000000E+00  0.00000000E+00
