Fe  Fe  H   O   S   Ni  Fe Co           
   1.00000000000000     
     5.6388600000000002    0.0000000000000000    0.0000000000000000
     0.0000000000000000   10.2679500000000008    0.0000000000000000
     0.0000000000000000    0.0000000000000000   41.0286899999999974
   Fe   Fe   H    O    S    Ni   Fe   Co
     6     6    12    24    16    22     1     1
Selective dynamics
Direct
  0.7406173300816308  0.1513510340890527  0.1191113723168775   T   T   T
  0.0254146280670995  0.6254380684679640  0.1428637699997030   T   T   T
  0.4268583599095440  0.1427605926148965  0.1791114363281932   T   T   T
  0.6819785562983031  0.6377312764609672  0.1991172593313802   T   T   T
  0.1023932490197483  0.1302090576998206  0.2342478582986410   T   T   T
  0.3796258818794322  0.6544579682825488  0.2611255683162981   T   T   T
  0.2397322176104551  0.3369931404851933  0.1194703235530813   T   T   T
  0.5277296179275696  0.8612881784354002  0.1426740888798037   T   T   T
  0.9253377192696611  0.3480993428549630  0.1802260587345366   T   T   T
  0.1833771766152187  0.8487303679896800  0.1977365707622125   T   T   T
  0.6101977796025706  0.3588417841279979  0.2394739198517268   T   T   T
  0.8726465429752593  0.8492484994769246  0.2586538384133690   T   T   T
  0.7606603110467312  0.4018335133466368  0.1215871132667274   T   T   T
  0.2615503315658130  0.0861336577784622  0.1210593282197289   T   T   T
  0.9505684648678909  0.9115641863427995  0.1259124323868504   T   T   T
  0.4481519967407943  0.5764874102555424  0.1258138609309442   T   T   T
  0.9519033874522047  0.0870662704464742  0.1781279541901999   T   T   T
  0.4636479649453148  0.4060852284232597  0.1797748696493732   T   T   T
  0.1604575578301266  0.5919459702195353  0.2004632804343789   T   T   T
  0.6548891350431858  0.8968413879906745  0.1998984240696015   T   T   T
  0.1703295754704387  0.4125589006335563  0.2529483323747259   T   T   T
  0.6412571153963055  0.0852436317815883  0.2419264378324825   T   T   T
  0.8481197545639347  0.6026406017427065  0.2574599620990927   T   T   T
  0.3401339974435209  0.9072343886423332  0.2568769821534523   T   T   T
  0.0497764810166386  0.1938704457030641  0.1077505370943746   T   T   T
  0.5489617970785104  0.2935408240635862  0.1078551811511684   T   T   T
  0.7936417588897287  0.9488666420955507  0.1214184027468125   T   T   T
  0.2913050345246708  0.5396543017739750  0.1210203074400735   T   T   T
  0.9051694841950854  0.4380448999536915  0.1331729436628484   T   T   T
  0.4054506051662095  0.0494740254742541  0.1327690649557281   T   T   T
  0.2011901264625942  0.7888127181656125  0.1510932631651405   T   T   T
  0.7016213890767024  0.6991373959476529  0.1508781815695016   T   T   T
  0.7515574209955934  0.1895978321332836  0.1670255962193296   T   T   T
  0.2511201420327915  0.2990159333807728  0.1671360861714903   T   T   T
  0.0242043682860001  0.5529540598108057  0.1876701709506839   T   T   T
  0.5157546772311135  0.9352332588701641  0.1874860336490181   T   T   T
  0.0929626596166935  0.0469229883374861  0.1900275857711339   T   T   T
  0.6035683568800175  0.4433446579499146  0.1916771518832421   T   T   T
  0.8595782999519981  0.8001764227439953  0.2127806738272263   T   T   T
  0.3573085754637468  0.6937626156483303  0.2138938619955288   T   T   T
  0.4293555819775575  0.1783939114636656  0.2274234767191608   T   T   T
  0.9461443029708063  0.2942239924848635  0.2269726550204995   T   T   T
  0.7010379764887165  0.5682279731516552  0.2463750809947707   T   T   T
  0.1868940432409024  0.9390629667953945  0.2463912668607296   T   T   T
  0.3207088422808852  0.4487780542082754  0.2615225443920922   T   T   T
  0.7935361728709110  0.0506263530947255  0.2527122036654026   T   T   T
  0.0491029901161939  0.6933151283207408  0.2735559385329596   T   T   T
  0.5477442941679630  0.8230216594148244  0.2719891689676553   T   T   T
  0.9555814892815716  0.3478390639404003  0.3096649747073005   T   T   T
  0.5344739774767513  0.6099377061836830  0.3198555861912794   T   T   T
  0.0629164466959580  0.8638493697705713  0.3276061348285693   T   T   T
  0.5640482880208065  0.0949377766082257  0.3229254300434969   T   T   T
  0.4342642926905969  0.3522631168932289  0.3706636164852857   T   T   T
  0.0169617104732303  0.5744001717049652  0.3711930169041846   T   T   T
  0.5217818510560642  0.8488071092252900  0.3791713449979444   T   T   T
  0.0111393672482125  0.1047316721846340  0.3811631937229928   T   T   T
  0.9858097586532647  0.3739311584688388  0.4317871427779412   T   T   T
  0.5625320360097202  0.6022356502563296  0.4266455068996248   T   T   T
  0.0208527230870950  0.8303205888230901  0.4291270296864196   T   T   T
  0.5077640118404335  0.1145953381413565  0.4295753069161199   T   T   T
  0.4299506224831207  0.3633569986395905  0.4952220333414760   T   T   T
  0.0670375221878250  0.6682746263979369  0.5022531687033130   T   T   T
  0.4997917072286076  0.8551287111894836  0.4819305977098318   T   T   T
  0.9979206743512090  0.1014674003375182  0.4802510871744353   T   T   T
  0.6621363297210999  0.6512808931413607  0.3753719162207471   T   T   T
  0.6460937353526101  0.1809918074511317  0.3763738856069814   T   T   T
  0.1295389851904060  0.4845231826304739  0.4742437776836964   T   T   T
  0.0247456101788717  0.3558793830703639  0.3763667153463984   T   T   T
  0.4650937716081094  0.8825362530986918  0.3166885431686051   T   T   T
  0.9461048454532459  0.6143210310718829  0.4236880433284923   T   T   T
  0.3140835120453505  0.4558815698872868  0.4152686574811959   T   T   T
  0.2861732455673274  0.7089765638945823  0.3508400855570727   T   T   T
  0.8859064999972224  0.1707006523027920  0.4282155400461113   T   T   T
  0.2520613165226318  0.2457852119748423  0.4563688398360857   T   T   T
  0.7121366588412351  0.4474237623928151  0.3429686547607323   T   T   T
  0.2993845252974739  0.6977195680712172  0.4555151111866972   T   T   T
  0.3884763771729451  0.9095901916394580  0.4286271607180916   T   T   T
  0.1081911238827204  0.8869313315337124  0.4815960807081062   T   T   T
  0.7849715227758641  0.9708456675668365  0.3529377773319061   T   T   T
  0.1496356826518245  0.9049009728268166  0.3794091577872962   T   T   T
  0.3333539405282176  0.4196283761478916  0.3107158385983713   T   T   T
  0.9237459482118371  0.6617464479814048  0.3191484045183854   T   T   T
  0.8164470658437941  0.1753053989903688  0.2880613002329163   T   T   T
  0.7516666528903978  0.9709153167023118  0.4547968009431291   T   T   T
  0.6480068592555435  0.1988760837956488  0.4777199054145489   T   T   T
  0.6654597077098072  0.4302965740307630  0.4570360898249252   T   T   T
  0.1988214787351587  0.1872896584523606  0.3338843736971561   T   T   T
  0.7187100931770394  0.6670671230045736  0.4776597491121851   T   T   T
 
  0.00000000E+00  0.00000000E+00  0.00000000E+00
  0.00000000E+00  0.00000000E+00  0.00000000E+00
  0.00000000E+00  0.00000000E+00  0.00000000E+00
  0.00000000E+00  0.00000000E+00  0.00000000E+00
  0.00000000E+00  0.00000000E+00  0.00000000E+00
  0.00000000E+00  0.00000000E+00  0.00000000E+00
  0.00000000E+00  0.00000000E+00  0.00000000E+00
  0.00000000E+00  0.00000000E+00  0.00000000E+00
  0.00000000E+00  0.00000000E+00  0.00000000E+00
  0.00000000E+00  0.00000000E+00  0.00000000E+00
  0.00000000E+00  0.00000000E+00  0.00000000E+00
  0.00000000E+00  0.00000000E+00  0.00000000E+00
  0.00000000E+00  0.00000000E+00  0.00000000E+00
  0.00000000E+00  0.00000000E+00  0.00000000E+00
  0.00000000E+00  0.00000000E+00  0.00000000E+00
  0.00000000E+00  0.00000000E+00  0.00000000E+00
  0.00000000E+00  0.00000000E+00  0.00000000E+00
  0.00000000E+00  0.00000000E+00  0.00000000E+00
  0.00000000E+00  0.00000000E+00  0.00000000E+00
  0.00000000E+00  0.00000000E+00  0.00000000E+00
  0.00000000E+00  0.00000000E+00  0.00000000E+00
  0.00000000E+00  0.00000000E+00  0.00000000E+00
  0.00000000E+00  0.00000000E+00  0.00000000E+00
  0.00000000E+00  0.00000000E+00  0.00000000E+00
  0.00000000E+00  0.00000000E+00  0.00000000E+00
  0.00000000E+00  0.00000000E+00  0.00000000E+00
  0.00000000E+00  0.00000000E+00  0.00000000E+00
  0.00000000E+00  0.00000000E+00  0.00000000E+00
  0.00000000E+00  0.00000000E+00  0.00000000E+00
  0.00000000E+00  0.00000000E+00  0.00000000E+00
  0.00000000E+00  0.00000000E+00  0.00000000E+00
  0.00000000E+00  0.00000000E+00  0.00000000E+00
  0.00000000E+00  0.00000000E+00  0.00000000E+00
  0.00000000E+00  0.00000000E+00  0.00000000E+00
  0.00000000E+00  0.00000000E+00  0.00000000E+00
  0.00000000E+00  0.00000000E+00  0.00000000E+00
  0.00000000E+00  0.00000000E+00  0.00000000E+00
  0.00000000E+00  0.00000000E+00  0.00000000E+00
  0.00000000E+00  0.00000000E+00  0.00000000E+00
  0.00000000E+00  0.00000000E+00  0.00000000E+00
  0.00000000E+00  0.00000000E+00  0.00000000E+00
  0.00000000E+00  0.00000000E+00  0.00000000E+00
  0.00000000E+00  0.00000000E+00  0.00000000E+00
  0.00000000E+00  0.00000000E+00  0.00000000E+00
  0.00000000E+00  0.00000000E+00  0.00000000E+00
  0.00000000E+00  0.00000000E+00  0.00000000E+00
  0.00000000E+00  0.00000000E+00  0.00000000E+00
  0.00000000E+00  0.00000000E+00  0.00000000E+00
  0.00000000E+00  0.00000000E+00  0.00000000E+00
  0.00000000E+00  0.00000000E+00  0.00000000E+00
  0.00000000E+00  0.00000000E+00  0.00000000E+00
  0.00000000E+00  0.00000000E+00  0.00000000E+00
  0.00000000E+00  0.00000000E+00  0.00000000E+00
  0.00000000E+00  0.00000000E+00  0.00000000E+00
  0.00000000E+00  0.00000000E+00  0.00000000E+00
  0.00000000E+00  0.00000000E+00  0.00000000E+00
  0.00000000E+00  0.00000000E+00  0.00000000E+00
  0.00000000E+00  0.00000000E+00  0.00000000E+00
  0.00000000E+00  0.00000000E+00  0.00000000E+00
  0.00000000E+00  0.00000000E+00  0.00000000E+00
  0.00000000E+00  0.00000000E+00  0.00000000E+00
  0.00000000E+00  0.00000000E+00  0.00000000E+00
  0.00000000E+00  0.00000000E+00  0.00000000E+00
  0.00000000E+00  0.00000000E+00  0.00000000E+00
  0.00000000E+00  0.00000000E+00  0.00000000E+00
  0.00000000E+00  0.00000000E+00  0.00000000E+00
  0.00000000E+00  0.00000000E+00  0.00000000E+00
  0.00000000E+00  0.00000000E+00  0.00000000E+00
  0.00000000E+00  0.00000000E+00  0.00000000E+00
  0.00000000E+00  0.00000000E+00  0.00000000E+00
  0.00000000E+00  0.00000000E+00  0.00000000E+00
  0.00000000E+00  0.00000000E+00  0.00000000E+00
  0.00000000E+00  0.00000000E+00  0.00000000E+00
  0.00000000E+00  0.00000000E+00  0.00000000E+00
  0.00000000E+00  0.00000000E+00  0.00000000E+00
  0.00000000E+00  0.00000000E+00  0.00000000E+00
  0.00000000E+00  0.00000000E+00  0.00000000E+00
  0.00000000E+00  0.00000000E+00  0.00000000E+00
  0.00000000E+00  0.00000000E+00  0.00000000E+00
  0.00000000E+00  0.00000000E+00  0.00000000E+00
  0.00000000E+00  0.00000000E+00  0.00000000E+00
  0.00000000E+00  0.00000000E+00  0.00000000E+00
  0.00000000E+00  0.00000000E+00  0.00000000E+00
  0.00000000E+00  0.00000000E+00  0.00000000E+00
  0.00000000E+00  0.00000000E+00  0.00000000E+00
  0.00000000E+00  0.00000000E+00  0.00000000E+00
  0.00000000E+00  0.00000000E+00  0.00000000E+00
  0.00000000E+00  0.00000000E+00  0.00000000E+00
