Fe  Fe  H   O   S   Ni  Fe Co           
   1.00000000000000     
     5.6388600000000002    0.0000000000000000    0.0000000000000000
     0.0000000000000000   10.2679500000000008    0.0000000000000000
     0.0000000000000000    0.0000000000000000   41.0286899999999974
   Fe   Fe   H    O    S    Ni   Fe   Co
     6     6    12    24    16    22     1     1
Selective dynamics
Direct
  0.7504552149338696  0.1482037149699556  0.1196188092882175   T   T   T
  0.0345462307261767  0.6219036199819897  0.1431022384435716   T   T   T
  0.4391118370026899  0.1387631031470278  0.1798110016858104   T   T   T
  0.6910987276292571  0.6346956189699272  0.1984806727207359   T   T   T
  0.1184269870033364  0.1275693127403813  0.2350517092983999   T   T   T
  0.4054598552289083  0.6504003838040147  0.2609458216990146   T   T   T
  0.2499320808557952  0.3335909861774597  0.1201475914955772   T   T   T
  0.5337825334639651  0.8582732755712469  0.1428039946904072   T   T   T
  0.9370541424461621  0.3448026395874608  0.1809467820714930   T   T   T
  0.1919939865199216  0.8452375536759930  0.1980990086550149   T   T   T
  0.6226108864143203  0.3520589892722852  0.2400415823007709   T   T   T
  0.8904091983442709  0.8492278302198731  0.2598906492180841   T   T   T
  0.7718504979662298  0.3977617911856478  0.1220662667627978   T   T   T
  0.2700733701210588  0.0839887383974045  0.1217172039137822   T   T   T
  0.9554374429279809  0.9075457716665669  0.1257409556348038   T   T   T
  0.4569424281919032  0.5734047269391859  0.1259761570828958   T   T   T
  0.9622726044789881  0.0856759905284215  0.1789842412839495   T   T   T
  0.4745832310755569  0.4012500055078571  0.1802176507230837   T   T   T
  0.1722983494999342  0.5887163027499916  0.2006556304463778   T   T   T
  0.6652917699074139  0.8918613003474525  0.2000693506745214   T   T   T
  0.1866649964054071  0.4041993079912176  0.2537808441327775   T   T   T
  0.6679272576155506  0.0855665668884717  0.2452899669937927   T   T   T
  0.8692350780611167  0.5981226752258453  0.2545095681844240   T   T   T
  0.3579170112955734  0.9034878276183117  0.2564268212345766   T   T   T
  0.0604093023363580  0.1905428833664301  0.1083270698458341   T   T   T
  0.5601336931712597  0.2912205418033647  0.1084583014502194   T   T   T
  0.7986796356308835  0.9451966260771388  0.1212866201374695   T   T   T
  0.2998346610421735  0.5363079178350559  0.1213488940201885   T   T   T
  0.9168857341214037  0.4341172374729058  0.1335679799242943   T   T   T
  0.4141415278992321  0.0469531959199576  0.1333651953895589   T   T   T
  0.2065177345207372  0.7861560878483318  0.1510410654226863   T   T   T
  0.7077398498843203  0.6951664510323191  0.1509644545257258   T   T   T
  0.7629763033734449  0.1856793360452402  0.1676511457009028   T   T   T
  0.2622667844908700  0.2952267528108868  0.1678864774951951   T   T   T
  0.0352839804642286  0.5493459311507704  0.1880363481737766   T   T   T
  0.5259274813049603  0.9307921480080436  0.1876158605042359   T   T   T
  0.1023347364382870  0.0448320334333216  0.1910514931907289   T   T   T
  0.6142761900287461  0.4392359749657307  0.1920409543449393   T   T   T
  0.8695166262797996  0.7980780733758220  0.2132864620196598   T   T   T
  0.3712874114431159  0.6901483067939104  0.2134732429029441   T   T   T
  0.4458370788188961  0.1736478993319939  0.2281821010020569   T   T   T
  0.9608932813924891  0.2908841542775489  0.2276454888375469   T   T   T
  0.7140940323281624  0.5613079090111164  0.2464011844119524   T   T   T
  0.2039404803200825  0.9348527590424500  0.2461492234378493   T   T   T
  0.3351733395470312  0.4397956782892051  0.2630892215461819   T   T   T
  0.8188065448068801  0.0530326849811958  0.2564633783072809   T   T   T
  0.0678818195500504  0.6843860197129291  0.2706329874492521   T   T   T
  0.5656508122750689  0.8201273332530707  0.2725010549790568   T   T   T
  0.9607507358913315  0.3494717189410592  0.3155485149222569   T   T   T
  0.5127705258251772  0.6146202118511500  0.3218088001478714   T   T   T
  0.0384225557616393  0.8645345136411756  0.3238537311950817   T   T   T
  0.5215865779067493  0.1028252588979613  0.3209897399961224   T   T   T
  0.4396191845917590  0.3560062632459125  0.3719923369826142   T   T   T
  0.9849577375332690  0.5934516812123731  0.3768820925606217   T   T   T
  0.5066206806373251  0.8610463595897530  0.3770432768030571   T   T   T
  0.9995083888437005  0.1138215611953656  0.3752953850568678   T   T   T
  0.9838118689157900  0.3665853933213734  0.4295605452416832   T   T   T
  0.4860906222947744  0.6027616873903939  0.4283665671604331   T   T   T
  0.9922736650793608  0.8563792928325328  0.4272293544939911   T   T   T
  0.5026406511854244  0.1196550555216350  0.4267945744487137   T   T   T
  0.4718547923185389  0.3629716557055268  0.4953562547300727   T   T   T
  0.9614917311680573  0.6291043561705567  0.4873372284953433   T   T   T
  0.4796427035845517  0.8641970625083918  0.4809999009106547   T   T   T
  0.9798781460963982  0.1162303737309271  0.4840876378141596   T   T   T
  0.2275683906193494  0.7196094832487149  0.4547546280697932   T   T   T
  0.7059659937761283  0.4553849898429076  0.4576145148215654   T   T   T
  0.8844627415017611  0.1689559946736519  0.4236747356674917   T   T   T
  0.7104365495414403  0.4565717496963814  0.3459503943005816   T   T   T
  0.8669602505705301  0.6527959745121423  0.4280791246077826   T   T   T
  0.5995998690662134  0.6679411666373466  0.4780448703897661   T   T   T
  0.1325230054079943  0.9169802367191000  0.3772027872775987   T   T   T
  0.0508427908527442  0.3821280922568526  0.3754603222559502   T   T   T
  0.2252954621096806  0.2155527879382247  0.3397436465611667   T   T   T
  0.3549667186628833  0.4115450094243439  0.4214890478370599   T   T   T
  0.1248156104782626  0.9308036448326110  0.4758608457267675   T   T   T
  0.7409002903641316  0.9821330507393562  0.4542046368761209   T   T   T
  0.7712279769655495  0.9786540717216854  0.3484588877088655   T   T   T
  0.6174297447809478  0.6575102357417203  0.3776896114222214   T   T   T
  0.2503215418923176  0.7159321444363099  0.3516519601501876   T   T   T
  0.6554943290529514  0.2095946111503547  0.4723033629644760   T   T   T
  0.4422879527745697  0.8852174202503373  0.3160133860509041   T   T   T
  0.6174212667246582  0.1729210515623805  0.3738821638928244   T   T   T
  0.8329853469525939  0.1715897543247787  0.2940384521466748   T   T   T
  0.2422303188220824  0.2258662991762092  0.4556369418313066   T   T   T
  0.3771543169886385  0.9178893206582868  0.4264314331620713   T   T   T
  0.3334892448290424  0.4230935053463337  0.3127844098504307   T   T   T
  0.9578902631897022  0.6229721111053287  0.3127880670758971   T   T   T
  0.1389906968581024  0.4456858792458155  0.4770511047385372   T   T   T
 
  0.00000000E+00  0.00000000E+00  0.00000000E+00
  0.00000000E+00  0.00000000E+00  0.00000000E+00
  0.00000000E+00  0.00000000E+00  0.00000000E+00
  0.00000000E+00  0.00000000E+00  0.00000000E+00
  0.00000000E+00  0.00000000E+00  0.00000000E+00
  0.00000000E+00  0.00000000E+00  0.00000000E+00
  0.00000000E+00  0.00000000E+00  0.00000000E+00
  0.00000000E+00  0.00000000E+00  0.00000000E+00
  0.00000000E+00  0.00000000E+00  0.00000000E+00
  0.00000000E+00  0.00000000E+00  0.00000000E+00
  0.00000000E+00  0.00000000E+00  0.00000000E+00
  0.00000000E+00  0.00000000E+00  0.00000000E+00
  0.00000000E+00  0.00000000E+00  0.00000000E+00
  0.00000000E+00  0.00000000E+00  0.00000000E+00
  0.00000000E+00  0.00000000E+00  0.00000000E+00
  0.00000000E+00  0.00000000E+00  0.00000000E+00
  0.00000000E+00  0.00000000E+00  0.00000000E+00
  0.00000000E+00  0.00000000E+00  0.00000000E+00
  0.00000000E+00  0.00000000E+00  0.00000000E+00
  0.00000000E+00  0.00000000E+00  0.00000000E+00
  0.00000000E+00  0.00000000E+00  0.00000000E+00
  0.00000000E+00  0.00000000E+00  0.00000000E+00
  0.00000000E+00  0.00000000E+00  0.00000000E+00
  0.00000000E+00  0.00000000E+00  0.00000000E+00
  0.00000000E+00  0.00000000E+00  0.00000000E+00
  0.00000000E+00  0.00000000E+00  0.00000000E+00
  0.00000000E+00  0.00000000E+00  0.00000000E+00
  0.00000000E+00  0.00000000E+00  0.00000000E+00
  0.00000000E+00  0.00000000E+00  0.00000000E+00
  0.00000000E+00  0.00000000E+00  0.00000000E+00
  0.00000000E+00  0.00000000E+00  0.00000000E+00
  0.00000000E+00  0.00000000E+00  0.00000000E+00
  0.00000000E+00  0.00000000E+00  0.00000000E+00
  0.00000000E+00  0.00000000E+00  0.00000000E+00
  0.00000000E+00  0.00000000E+00  0.00000000E+00
  0.00000000E+00  0.00000000E+00  0.00000000E+00
  0.00000000E+00  0.00000000E+00  0.00000000E+00
  0.00000000E+00  0.00000000E+00  0.00000000E+00
  0.00000000E+00  0.00000000E+00  0.00000000E+00
  0.00000000E+00  0.00000000E+00  0.00000000E+00
  0.00000000E+00  0.00000000E+00  0.00000000E+00
  0.00000000E+00  0.00000000E+00  0.00000000E+00
  0.00000000E+00  0.00000000E+00  0.00000000E+00
  0.00000000E+00  0.00000000E+00  0.00000000E+00
  0.00000000E+00  0.00000000E+00  0.00000000E+00
  0.00000000E+00  0.00000000E+00  0.00000000E+00
  0.00000000E+00  0.00000000E+00  0.00000000E+00
  0.00000000E+00  0.00000000E+00  0.00000000E+00
  0.00000000E+00  0.00000000E+00  0.00000000E+00
  0.00000000E+00  0.00000000E+00  0.00000000E+00
  0.00000000E+00  0.00000000E+00  0.00000000E+00
  0.00000000E+00  0.00000000E+00  0.00000000E+00
  0.00000000E+00  0.00000000E+00  0.00000000E+00
  0.00000000E+00  0.00000000E+00  0.00000000E+00
  0.00000000E+00  0.00000000E+00  0.00000000E+00
  0.00000000E+00  0.00000000E+00  0.00000000E+00
  0.00000000E+00  0.00000000E+00  0.00000000E+00
  0.00000000E+00  0.00000000E+00  0.00000000E+00
  0.00000000E+00  0.00000000E+00  0.00000000E+00
  0.00000000E+00  0.00000000E+00  0.00000000E+00
  0.00000000E+00  0.00000000E+00  0.00000000E+00
  0.00000000E+00  0.00000000E+00  0.00000000E+00
  0.00000000E+00  0.00000000E+00  0.00000000E+00
  0.00000000E+00  0.00000000E+00  0.00000000E+00
  0.00000000E+00  0.00000000E+00  0.00000000E+00
  0.00000000E+00  0.00000000E+00  0.00000000E+00
  0.00000000E+00  0.00000000E+00  0.00000000E+00
  0.00000000E+00  0.00000000E+00  0.00000000E+00
  0.00000000E+00  0.00000000E+00  0.00000000E+00
  0.00000000E+00  0.00000000E+00  0.00000000E+00
  0.00000000E+00  0.00000000E+00  0.00000000E+00
  0.00000000E+00  0.00000000E+00  0.00000000E+00
  0.00000000E+00  0.00000000E+00  0.00000000E+00
  0.00000000E+00  0.00000000E+00  0.00000000E+00
  0.00000000E+00  0.00000000E+00  0.00000000E+00
  0.00000000E+00  0.00000000E+00  0.00000000E+00
  0.00000000E+00  0.00000000E+00  0.00000000E+00
  0.00000000E+00  0.00000000E+00  0.00000000E+00
  0.00000000E+00  0.00000000E+00  0.00000000E+00
  0.00000000E+00  0.00000000E+00  0.00000000E+00
  0.00000000E+00  0.00000000E+00  0.00000000E+00
  0.00000000E+00  0.00000000E+00  0.00000000E+00
  0.00000000E+00  0.00000000E+00  0.00000000E+00
  0.00000000E+00  0.00000000E+00  0.00000000E+00
  0.00000000E+00  0.00000000E+00  0.00000000E+00
  0.00000000E+00  0.00000000E+00  0.00000000E+00
  0.00000000E+00  0.00000000E+00  0.00000000E+00
  0.00000000E+00  0.00000000E+00  0.00000000E+00
