Fe  Fe  H   O   S   Ni  Fe Co           
   1.00000000000000     
     5.6388600000000002    0.0000000000000000    0.0000000000000000
     0.0000000000000000   10.2679500000000008    0.0000000000000000
     0.0000000000000000    0.0000000000000000   41.0286899999999974
   Fe   Fe   H    O    S    Ni   Fe   Co
     6     6    12    24    16    22     1     1
Selective dynamics
Direct
  0.7401308804492296  0.1500327439193521  0.1192091338534832   T   T   T
  0.0246400577219297  0.6230424129508728  0.1430962914079413   T   T   T
  0.4262846654262220  0.1407131457604970  0.1793656455873206   T   T   T
  0.6809610121748123  0.6353877173005918  0.1992863860379357   T   T   T
  0.1014297479460276  0.1282739467236475  0.2343365954308009   T   T   T
  0.3790494446679770  0.6504135288885955  0.2611756789762376   T   T   T
  0.2391323094418746  0.3350747794420038  0.1196736706882761   T   T   T
  0.5278120030716655  0.8597100364712522  0.1428382596616721   T   T   T
  0.9247850682398722  0.3458614990438946  0.1805825564906644   T   T   T
  0.1822939561445221  0.8461220003570815  0.1976854199606211   T   T   T
  0.6080611100210856  0.3550593732338334  0.2394442242654554   T   T   T
  0.8757879172571420  0.8474730857163035  0.2587777365727016   T   T   T
  0.7603516690912082  0.4001938520162337  0.1216670154631700   T   T   T
  0.2607201916277983  0.0838027235066470  0.1213235189441949   T   T   T
  0.9499049811666596  0.9103944522600206  0.1258515406603224   T   T   T
  0.4487940465481458  0.5743681791982772  0.1263790099963550   T   T   T
  0.9510910941828310  0.0856746159323458  0.1782039176304336   T   T   T
  0.4615824983065529  0.4036897525816525  0.1799253911734196   T   T   T
  0.1577743005342577  0.5887390397196742  0.2007697232528183   T   T   T
  0.6545840795289083  0.8941547880650336  0.2001738691333382   T   T   T
  0.1751710284244383  0.4074784159737346  0.2566746264148482   T   T   T
  0.6460339018697036  0.0839635753368919  0.2431093547888220   T   T   T
  0.8458277173305438  0.5992041581776857  0.2576998129179190   T   T   T
  0.3423295208171293  0.9047577870759309  0.2557334860367397   T   T   T
  0.0490733380659131  0.1926514017856869  0.1077258251909691   T   T   T
  0.5480038177886731  0.2917103099475721  0.1078741380575228   T   T   T
  0.7928835332810514  0.9478008406607636  0.1214738388176260   T   T   T
  0.2921053344116441  0.5371908297692366  0.1216493127041183   T   T   T
  0.9047927698640293  0.4364230847926275  0.1332442643122572   T   T   T
  0.4043288508864665  0.0473535732864566  0.1330840618711488   T   T   T
  0.2008255107216985  0.7867918000135524  0.1510416272704337   T   T   T
  0.7014192386141064  0.6976327590229096  0.1510610257115155   T   T   T
  0.7503501850797780  0.1880250680827020  0.1670989080918232   T   T   T
  0.2498993390528655  0.2964349107677321  0.1672919630126785   T   T   T
  0.0206521347813712  0.5501994952290149  0.1880457142507417   T   T   T
  0.5157246882493516  0.9329333657675640  0.1877353951340247   T   T   T
  0.0912839375019665  0.0455012806691792  0.1902599588962648   T   T   T
  0.6015548526347486  0.4409895578634933  0.1918169904037120   T   T   T
  0.8591627442593441  0.7980764806264316  0.2129406294511566   T   T   T
  0.3551557819603178  0.6901930327703196  0.2141179156458838   T   T   T
  0.4285698246305216  0.1767575070715618  0.2275688565562325   T   T   T
  0.9450413682843024  0.2912376745743099  0.2270910878620220   T   T   T
  0.6986191380961014  0.5647295460470980  0.2466397260557465   T   T   T
  0.1879066003494949  0.9371217401340239  0.2458205989116594   T   T   T
  0.3281180392025402  0.4436179072826615  0.2641306329943168   T   T   T
  0.7970364185899298  0.0502648692368034  0.2540563852175687   T   T   T
  0.0494560865678696  0.6904590426833782  0.2735427885292169   T   T   T
  0.5491216501572612  0.8186562993136657  0.2704710160481911   T   T   T
  0.9895722354682469  0.3340625103890575  0.3135684950088826   T   T   T
  0.5246223583826969  0.6156074732394825  0.3212474170390569   T   T   T
  0.0547806779012272  0.8743490439827371  0.3253500375215946   T   T   T
  0.5037198230544189  0.0990772799128319  0.3187489748460080   T   T   T
  0.5127117086944775  0.3510214510275570  0.3693672430450755   T   T   T
  0.0117412272243694  0.5942173491280971  0.3729363857232477   T   T   T
  0.5249448564362236  0.8638614996982404  0.3773950771145713   T   T   T
  0.9492762237842074  0.1223997396590313  0.3817816521290776   T   T   T
  0.0612336706817412  0.3759380236102775  0.4316319489625842   T   T   T
  0.5047772614942511  0.5917181740932302  0.4233941597169160   T   T   T
  0.0098766086386165  0.8570844610122712  0.4265188065537182   T   T   T
  0.4798064474193239  0.1278896397819757  0.4347330845366311   T   T   T
  0.5016756476238989  0.3687243649721568  0.5001763380718900   T   T   T
  0.9840184424414383  0.6175027164662108  0.4848585033875402   T   T   T
  0.4994755847381268  0.8511083381921180  0.4767467131168883   T   T   T
  0.9922322831758600  0.0987588415644290  0.4898011498916847   T   T   T
  0.1550350280458334  0.1577948393174820  0.3376467373072004   T   T   T
  0.4589752776067417  0.3775230171857198  0.4224071655852159   T   T   T
  0.6214999077654740  0.6511075629153327  0.4729143443156563   T   T   T
  0.7606175172774000  0.9888190310400337  0.4542648423366136   T   T   T
  0.3635909047233321  0.4116962540259400  0.3135133656522671   T   T   T
  0.8130361626144990  0.1686738253780797  0.2919581945184638   T   T   T
  0.2333897555893891  0.2401134867898532  0.4662314256644305   T   T   T
  0.1369249583264076  0.9165205603356693  0.4759218131506587   T   T   T
  0.4579901339476015  0.8820659337399761  0.3135024386687494   T   T   T
  0.9154240701161863  0.6730706613757540  0.3189572111494081   T   T   T
  0.3966476506969722  0.9218407786253938  0.4261014429848078   T   T   T
  0.7592978271159979  0.4643205770045504  0.3410899373850602   T   T   T
  0.2586856332655414  0.4829936380972965  0.4714781515367199   T   T   T
  0.7874901028540990  0.4316044703604303  0.4663862791836090   T   T   T
  0.2419237777246904  0.7110740649900208  0.4502618801650265   T   T   T
  0.6439160096852277  0.6588446331994836  0.3734549152086059   T   T   T
  0.8213835562575893  0.2159081253851408  0.4256559378426975   T   T   T
  0.1547572134431380  0.9418496299904675  0.3771016837701054   T   T   T
  0.5119389721336278  0.1383600529040811  0.3766185159043969   T   T   T
  0.8850670240700895  0.6441790174782206  0.4235765723373763   T   T   T
  0.6644538704399496  0.1963777170660206  0.4818360840170328   T   T   T
  0.2731674645744916  0.7283946725096260  0.3514541061671360   T   T   T
  0.0977524723017916  0.3603691360079980  0.3730394394751041   T   T   T
  0.7759972672429112  0.9911724204969157  0.3464020026659701   T   T   T
 
  0.00000000E+00  0.00000000E+00  0.00000000E+00
  0.00000000E+00  0.00000000E+00  0.00000000E+00
  0.00000000E+00  0.00000000E+00  0.00000000E+00
  0.00000000E+00  0.00000000E+00  0.00000000E+00
  0.00000000E+00  0.00000000E+00  0.00000000E+00
  0.00000000E+00  0.00000000E+00  0.00000000E+00
  0.00000000E+00  0.00000000E+00  0.00000000E+00
  0.00000000E+00  0.00000000E+00  0.00000000E+00
  0.00000000E+00  0.00000000E+00  0.00000000E+00
  0.00000000E+00  0.00000000E+00  0.00000000E+00
  0.00000000E+00  0.00000000E+00  0.00000000E+00
  0.00000000E+00  0.00000000E+00  0.00000000E+00
  0.00000000E+00  0.00000000E+00  0.00000000E+00
  0.00000000E+00  0.00000000E+00  0.00000000E+00
  0.00000000E+00  0.00000000E+00  0.00000000E+00
  0.00000000E+00  0.00000000E+00  0.00000000E+00
  0.00000000E+00  0.00000000E+00  0.00000000E+00
  0.00000000E+00  0.00000000E+00  0.00000000E+00
  0.00000000E+00  0.00000000E+00  0.00000000E+00
  0.00000000E+00  0.00000000E+00  0.00000000E+00
  0.00000000E+00  0.00000000E+00  0.00000000E+00
  0.00000000E+00  0.00000000E+00  0.00000000E+00
  0.00000000E+00  0.00000000E+00  0.00000000E+00
  0.00000000E+00  0.00000000E+00  0.00000000E+00
  0.00000000E+00  0.00000000E+00  0.00000000E+00
  0.00000000E+00  0.00000000E+00  0.00000000E+00
  0.00000000E+00  0.00000000E+00  0.00000000E+00
  0.00000000E+00  0.00000000E+00  0.00000000E+00
  0.00000000E+00  0.00000000E+00  0.00000000E+00
  0.00000000E+00  0.00000000E+00  0.00000000E+00
  0.00000000E+00  0.00000000E+00  0.00000000E+00
  0.00000000E+00  0.00000000E+00  0.00000000E+00
  0.00000000E+00  0.00000000E+00  0.00000000E+00
  0.00000000E+00  0.00000000E+00  0.00000000E+00
  0.00000000E+00  0.00000000E+00  0.00000000E+00
  0.00000000E+00  0.00000000E+00  0.00000000E+00
  0.00000000E+00  0.00000000E+00  0.00000000E+00
  0.00000000E+00  0.00000000E+00  0.00000000E+00
  0.00000000E+00  0.00000000E+00  0.00000000E+00
  0.00000000E+00  0.00000000E+00  0.00000000E+00
  0.00000000E+00  0.00000000E+00  0.00000000E+00
  0.00000000E+00  0.00000000E+00  0.00000000E+00
  0.00000000E+00  0.00000000E+00  0.00000000E+00
  0.00000000E+00  0.00000000E+00  0.00000000E+00
  0.00000000E+00  0.00000000E+00  0.00000000E+00
  0.00000000E+00  0.00000000E+00  0.00000000E+00
  0.00000000E+00  0.00000000E+00  0.00000000E+00
  0.00000000E+00  0.00000000E+00  0.00000000E+00
  0.00000000E+00  0.00000000E+00  0.00000000E+00
  0.00000000E+00  0.00000000E+00  0.00000000E+00
  0.00000000E+00  0.00000000E+00  0.00000000E+00
  0.00000000E+00  0.00000000E+00  0.00000000E+00
  0.00000000E+00  0.00000000E+00  0.00000000E+00
  0.00000000E+00  0.00000000E+00  0.00000000E+00
  0.00000000E+00  0.00000000E+00  0.00000000E+00
  0.00000000E+00  0.00000000E+00  0.00000000E+00
  0.00000000E+00  0.00000000E+00  0.00000000E+00
  0.00000000E+00  0.00000000E+00  0.00000000E+00
  0.00000000E+00  0.00000000E+00  0.00000000E+00
  0.00000000E+00  0.00000000E+00  0.00000000E+00
  0.00000000E+00  0.00000000E+00  0.00000000E+00
  0.00000000E+00  0.00000000E+00  0.00000000E+00
  0.00000000E+00  0.00000000E+00  0.00000000E+00
  0.00000000E+00  0.00000000E+00  0.00000000E+00
  0.00000000E+00  0.00000000E+00  0.00000000E+00
  0.00000000E+00  0.00000000E+00  0.00000000E+00
  0.00000000E+00  0.00000000E+00  0.00000000E+00
  0.00000000E+00  0.00000000E+00  0.00000000E+00
  0.00000000E+00  0.00000000E+00  0.00000000E+00
  0.00000000E+00  0.00000000E+00  0.00000000E+00
  0.00000000E+00  0.00000000E+00  0.00000000E+00
  0.00000000E+00  0.00000000E+00  0.00000000E+00
  0.00000000E+00  0.00000000E+00  0.00000000E+00
  0.00000000E+00  0.00000000E+00  0.00000000E+00
  0.00000000E+00  0.00000000E+00  0.00000000E+00
  0.00000000E+00  0.00000000E+00  0.00000000E+00
  0.00000000E+00  0.00000000E+00  0.00000000E+00
  0.00000000E+00  0.00000000E+00  0.00000000E+00
  0.00000000E+00  0.00000000E+00  0.00000000E+00
  0.00000000E+00  0.00000000E+00  0.00000000E+00
  0.00000000E+00  0.00000000E+00  0.00000000E+00
  0.00000000E+00  0.00000000E+00  0.00000000E+00
  0.00000000E+00  0.00000000E+00  0.00000000E+00
  0.00000000E+00  0.00000000E+00  0.00000000E+00
  0.00000000E+00  0.00000000E+00  0.00000000E+00
  0.00000000E+00  0.00000000E+00  0.00000000E+00
  0.00000000E+00  0.00000000E+00  0.00000000E+00
  0.00000000E+00  0.00000000E+00  0.00000000E+00
