Fe  Fe  H   O   S   Ni  Fe Co           
   1.00000000000000     
     5.6388600000000002    0.0000000000000000    0.0000000000000000
     0.0000000000000000   10.2679500000000008    0.0000000000000000
     0.0000000000000000    0.0000000000000000   41.0286899999999974
   Fe   Fe   H    O    S    Ni   Fe   Co
     6     6    12    24    16    22     1     1
Selective dynamics
Direct
  0.7397580458121710  0.1504586351693544  0.1195613541241076   T   T   T
  0.0250571130567182  0.6239527060106650  0.1432699419226141   T   T   T
  0.4251386157865463  0.1408269523052172  0.1796430901735964   T   T   T
  0.6812442631244374  0.6361210210516056  0.1993942673267092   T   T   T
  0.1005042250568274  0.1289629316950593  0.2347715731216803   T   T   T
  0.3782827041089884  0.6524382722226548  0.2609891823750039   T   T   T
  0.2390260168189150  0.3355374955524794  0.1199621970434301   T   T   T
  0.5271381467869549  0.8602303468285897  0.1430053237176465   T   T   T
  0.9243679254936918  0.3468777032701905  0.1808157182822295   T   T   T
  0.1812683526466153  0.8474275974749491  0.1979137447488758   T   T   T
  0.6072819406877111  0.3550612224955847  0.2397876602982636   T   T   T
  0.8747395299252154  0.8483077160828383  0.2592576450590594   T   T   T
  0.7603450755164662  0.4008541267583074  0.1219067277979404   T   T   T
  0.2599580947557185  0.0846056082608578  0.1214826010473343   T   T   T
  0.9494160309197855  0.9108890379766563  0.1260790815570451   T   T   T
  0.4488135620800505  0.5748982736684817  0.1264212541958387   T   T   T
  0.9491704657060973  0.0870088914221059  0.1786020575623833   T   T   T
  0.4621572288370668  0.4041783366467703  0.1800907441121147   T   T   T
  0.1585469057959564  0.5900853935731724  0.2009002028062588   T   T   T
  0.6536861866783729  0.8949504410161925  0.2003355904779715   T   T   T
  0.1700993606998527  0.4079770992298352  0.2545055081516329   T   T   T
  0.6452866705226791  0.0851578188469254  0.2438922064633670   T   T   T
  0.8450950343469096  0.5997243777898739  0.2576535501449552   T   T   T
  0.3407263218592847  0.9053023407561018  0.2563954204174277   T   T   T
  0.0486809889406152  0.1932842471494686  0.1080163278849783   T   T   T
  0.5478776392701722  0.2919165536626445  0.1080871138302388   T   T   T
  0.7923339890797104  0.9483712983259359  0.1217307140506581   T   T   T
  0.2919417343870102  0.5376785442996953  0.1217615702557092   T   T   T
  0.9048728876674476  0.4370396413778372  0.1334405623323660   T   T   T
  0.4032782616030933  0.0478165972796526  0.1332631554376557   T   T   T
  0.2009642759161148  0.7875854301090423  0.1511861265710277   T   T   T
  0.7020265886179682  0.6983649135745625  0.1511875016657074   T   T   T
  0.7498651515073236  0.1886162822212647  0.1675310097583365   T   T   T
  0.2493962432682808  0.2969881392904604  0.1676412610313519   T   T   T
  0.0213462659883710  0.5510765524287458  0.1882446995570494   T   T   T
  0.5150033419001785  0.9337246723805260  0.1878201479320052   T   T   T
  0.0897303225331613  0.0464194613326096  0.1906276426700383   T   T   T
  0.6021036884796662  0.4414775063199878  0.1919797681497599   T   T   T
  0.8588036737518246  0.7990146190503631  0.2131295829844500   T   T   T
  0.3554079327374721  0.6917172488051756  0.2139265782812718   T   T   T
  0.4274176535920623  0.1764342886843014  0.2279420037499455   T   T   T
  0.9447531139380014  0.2925819502246741  0.2275160825724382   T   T   T
  0.6974853094813107  0.5650022067729634  0.2467155915711230   T   T   T
  0.1869338580389570  0.9378065282200390  0.2461788551629139   T   T   T
  0.3209108757784161  0.4449027184610747  0.2627019019223070   T   T   T
  0.7961063720265431  0.0518596329025060  0.2550508987935769   T   T   T
  0.0484032245138127  0.6906244387031120  0.2732049659956950   T   T   T
  0.5459377777393738  0.8198912841499336  0.2712599216648058   T   T   T
  0.9824808900827118  0.3288984265787845  0.3153913260213295   T   T   T
  0.5258351971489887  0.6118668910204698  0.3203865587756482   T   T   T
  0.0534724036744968  0.8727369173694636  0.3251695887762281   T   T   T
  0.5250641795427184  0.0975731569379788  0.3231107264626015   T   T   T
  0.4736671692044820  0.3601972525096694  0.3664524076560056   T   T   T
  0.0082852553517726  0.5956637695442972  0.3720876855195415   T   T   T
  0.5137253524033121  0.8506418722906787  0.3784037305112695   T   T   T
  0.9861968201719115  0.1143861979814385  0.3782265464636446   T   T   T
  0.0147397503180123  0.3691928053504612  0.4296997520958175   T   T   T
  0.5266521445488215  0.5991399656835612  0.4280084494998553   T   T   T
  0.9967509931458208  0.8488616977177493  0.4264801039659675   T   T   T
  0.4822018069660994  0.1089987846698215  0.4277461422346311   T   T   T
  0.5121052372162902  0.3623027947919720  0.4886188583642685   T   T   T
  0.0172894029491857  0.6165498209464156  0.4936788178645853   T   T   T
  0.4579155154987550  0.8742626192348848  0.4833908109200162   T   T   T
  0.9712343481032524  0.1016363294069759  0.4812280621603782   T   T   T
  0.6355771356630830  0.6501309599838682  0.3746536719708674   T   T   T
  0.3662450943030158  0.9072608339742736  0.4271002354589188   T   T   T
  0.0869865502281163  0.9018434385592494  0.4775372006530286   T   T   T
  0.2262091146758788  0.2079103215321076  0.3438796513981179   T   T   T
  0.9085424096317479  0.6471811469799268  0.4217732393599803   T   T   T
  0.2721653079916608  0.7198641796961432  0.3498992150834782   T   T   T
  0.2526561140758632  0.7044242269156039  0.4552245665051828   T   T   T
  0.7579603840814938  0.4626427752140926  0.3414187716644347   T   T   T
  0.4606705462023120  0.8836437449815906  0.3150622016753528   T   T   T
  0.8563025659021967  0.1756140933021316  0.4263923778697955   T   T   T
  0.1439398931830860  0.9203534077424644  0.3770652836886427   T   T   T
  0.2141065191147695  0.4620637828073299  0.4698107834131945   T   T   T
  0.3500046487772976  0.4128501115016421  0.3114817250794653   T   T   T
  0.2295845434662434  0.2263239322223757  0.4561203634832022   T   T   T
  0.8111706523098159  0.1688827698941748  0.2923794835006788   T   T   T
  0.9133716284925874  0.6725740102614113  0.3182903938228751   T   T   T
  0.6158327150449971  0.1711732495524438  0.4776516797626194   T   T   T
  0.7820246971873717  0.4813706916173061  0.4619390154447515   T   T   T
  0.6063445148004456  0.1663748279085678  0.3752772621780753   T   T   T
  0.7291233183962499  0.9682416772956687  0.4527315695683750   T   T   T
  0.7743307688638528  0.9750093150374856  0.3503259192321892   T   T   T
  0.0977713932524580  0.3946829821281687  0.3776450270200918   T   T   T
  0.5108778604745788  0.3646703466964230  0.4234266588727452   T   T   T
  0.6809421697743145  0.7043077703298646  0.4768495092492525   T   T   T
 
  0.00000000E+00  0.00000000E+00  0.00000000E+00
  0.00000000E+00  0.00000000E+00  0.00000000E+00
  0.00000000E+00  0.00000000E+00  0.00000000E+00
  0.00000000E+00  0.00000000E+00  0.00000000E+00
  0.00000000E+00  0.00000000E+00  0.00000000E+00
  0.00000000E+00  0.00000000E+00  0.00000000E+00
  0.00000000E+00  0.00000000E+00  0.00000000E+00
  0.00000000E+00  0.00000000E+00  0.00000000E+00
  0.00000000E+00  0.00000000E+00  0.00000000E+00
  0.00000000E+00  0.00000000E+00  0.00000000E+00
  0.00000000E+00  0.00000000E+00  0.00000000E+00
  0.00000000E+00  0.00000000E+00  0.00000000E+00
  0.00000000E+00  0.00000000E+00  0.00000000E+00
  0.00000000E+00  0.00000000E+00  0.00000000E+00
  0.00000000E+00  0.00000000E+00  0.00000000E+00
  0.00000000E+00  0.00000000E+00  0.00000000E+00
  0.00000000E+00  0.00000000E+00  0.00000000E+00
  0.00000000E+00  0.00000000E+00  0.00000000E+00
  0.00000000E+00  0.00000000E+00  0.00000000E+00
  0.00000000E+00  0.00000000E+00  0.00000000E+00
  0.00000000E+00  0.00000000E+00  0.00000000E+00
  0.00000000E+00  0.00000000E+00  0.00000000E+00
  0.00000000E+00  0.00000000E+00  0.00000000E+00
  0.00000000E+00  0.00000000E+00  0.00000000E+00
  0.00000000E+00  0.00000000E+00  0.00000000E+00
  0.00000000E+00  0.00000000E+00  0.00000000E+00
  0.00000000E+00  0.00000000E+00  0.00000000E+00
  0.00000000E+00  0.00000000E+00  0.00000000E+00
  0.00000000E+00  0.00000000E+00  0.00000000E+00
  0.00000000E+00  0.00000000E+00  0.00000000E+00
  0.00000000E+00  0.00000000E+00  0.00000000E+00
  0.00000000E+00  0.00000000E+00  0.00000000E+00
  0.00000000E+00  0.00000000E+00  0.00000000E+00
  0.00000000E+00  0.00000000E+00  0.00000000E+00
  0.00000000E+00  0.00000000E+00  0.00000000E+00
  0.00000000E+00  0.00000000E+00  0.00000000E+00
  0.00000000E+00  0.00000000E+00  0.00000000E+00
  0.00000000E+00  0.00000000E+00  0.00000000E+00
  0.00000000E+00  0.00000000E+00  0.00000000E+00
  0.00000000E+00  0.00000000E+00  0.00000000E+00
  0.00000000E+00  0.00000000E+00  0.00000000E+00
  0.00000000E+00  0.00000000E+00  0.00000000E+00
  0.00000000E+00  0.00000000E+00  0.00000000E+00
  0.00000000E+00  0.00000000E+00  0.00000000E+00
  0.00000000E+00  0.00000000E+00  0.00000000E+00
  0.00000000E+00  0.00000000E+00  0.00000000E+00
  0.00000000E+00  0.00000000E+00  0.00000000E+00
  0.00000000E+00  0.00000000E+00  0.00000000E+00
  0.00000000E+00  0.00000000E+00  0.00000000E+00
  0.00000000E+00  0.00000000E+00  0.00000000E+00
  0.00000000E+00  0.00000000E+00  0.00000000E+00
  0.00000000E+00  0.00000000E+00  0.00000000E+00
  0.00000000E+00  0.00000000E+00  0.00000000E+00
  0.00000000E+00  0.00000000E+00  0.00000000E+00
  0.00000000E+00  0.00000000E+00  0.00000000E+00
  0.00000000E+00  0.00000000E+00  0.00000000E+00
  0.00000000E+00  0.00000000E+00  0.00000000E+00
  0.00000000E+00  0.00000000E+00  0.00000000E+00
  0.00000000E+00  0.00000000E+00  0.00000000E+00
  0.00000000E+00  0.00000000E+00  0.00000000E+00
  0.00000000E+00  0.00000000E+00  0.00000000E+00
  0.00000000E+00  0.00000000E+00  0.00000000E+00
  0.00000000E+00  0.00000000E+00  0.00000000E+00
  0.00000000E+00  0.00000000E+00  0.00000000E+00
  0.00000000E+00  0.00000000E+00  0.00000000E+00
  0.00000000E+00  0.00000000E+00  0.00000000E+00
  0.00000000E+00  0.00000000E+00  0.00000000E+00
  0.00000000E+00  0.00000000E+00  0.00000000E+00
  0.00000000E+00  0.00000000E+00  0.00000000E+00
  0.00000000E+00  0.00000000E+00  0.00000000E+00
  0.00000000E+00  0.00000000E+00  0.00000000E+00
  0.00000000E+00  0.00000000E+00  0.00000000E+00
  0.00000000E+00  0.00000000E+00  0.00000000E+00
  0.00000000E+00  0.00000000E+00  0.00000000E+00
  0.00000000E+00  0.00000000E+00  0.00000000E+00
  0.00000000E+00  0.00000000E+00  0.00000000E+00
  0.00000000E+00  0.00000000E+00  0.00000000E+00
  0.00000000E+00  0.00000000E+00  0.00000000E+00
  0.00000000E+00  0.00000000E+00  0.00000000E+00
  0.00000000E+00  0.00000000E+00  0.00000000E+00
  0.00000000E+00  0.00000000E+00  0.00000000E+00
  0.00000000E+00  0.00000000E+00  0.00000000E+00
  0.00000000E+00  0.00000000E+00  0.00000000E+00
  0.00000000E+00  0.00000000E+00  0.00000000E+00
  0.00000000E+00  0.00000000E+00  0.00000000E+00
  0.00000000E+00  0.00000000E+00  0.00000000E+00
  0.00000000E+00  0.00000000E+00  0.00000000E+00
  0.00000000E+00  0.00000000E+00  0.00000000E+00
