Fe  Fe  H   O   S   Ni  Fe Co           
   1.00000000000000     
     5.6388600000000002    0.0000000000000000    0.0000000000000000
     0.0000000000000000   10.2679500000000008    0.0000000000000000
     0.0000000000000000    0.0000000000000000   41.0286899999999974
   Fe   Fe   H    O    S    Ni   Fe   Co
     6     6    12    24    16    22     1     1
Selective dynamics
Direct
  0.7464003590014822  0.1481861139521611  0.1202015387489705   T   T   T
  0.0285043819024302  0.6210756213362087  0.1441227874095441   T   T   T
  0.4313325905908501  0.1382907382732253  0.1802996619071885   T   T   T
  0.6837997571380576  0.6337077776537798  0.2002158463022320   T   T   T
  0.1082638194004219  0.1261077464842914  0.2354504698909748   T   T   T
  0.3799777525272638  0.6478192663505324  0.2618643758705319   T   T   T
  0.2456876156511607  0.3336799960271022  0.1207777024201968   T   T   T
  0.5302965523368020  0.8574553421273369  0.1437979176993527   T   T   T
  0.9301792468054334  0.3446627069405737  0.1816406361506233   T   T   T
  0.1829986392507173  0.8445939781864882  0.1988444272754770   T   T   T
  0.6087521343870865  0.3524841976773670  0.2401735808921692   T   T   T
  0.8777248943534419  0.8446719503476746  0.2604504904632136   T   T   T
  0.7658031234219425  0.3980713041235533  0.1227394044285708   T   T   T
  0.2650620811903392  0.0830702950549387  0.1221996402786601   T   T   T
  0.9521057999225006  0.9080272830529126  0.1263052417680943   T   T   T
  0.4521771967023108  0.5733097256570590  0.1271047734081106   T   T   T
  0.9540474030387104  0.0856786920715679  0.1793890833153643   T   T   T
  0.4672385258169097  0.4018125189118060  0.1806786987400032   T   T   T
  0.1632279023067947  0.5880411330424637  0.2017375474378063   T   T   T
  0.6569735055921051  0.8922852950813005  0.2010909929700216   T   T   T
  0.1707082817776587  0.4023714538064109  0.2545449469932590   T   T   T
  0.6552797263466288  0.0837037688733588  0.2450290841808826   T   T   T
  0.8470103238908975  0.5946641257481783  0.2582062514286061   T   T   T
  0.3463041653884213  0.9015993897898836  0.2566903878693242   T   T   T
  0.0560099787108111  0.1909364473092778  0.1087668026075159   T   T   T
  0.5553445497152867  0.2903518463177553  0.1089116230242628   T   T   T
  0.7949421618987458  0.9452395827733784  0.1219160164683308   T   T   T
  0.2957180293385643  0.5358450629926235  0.1222752816958164   T   T   T
  0.9099793538677983  0.4345807371373506  0.1343736245829271   T   T   T
  0.4079960598322784  0.0456933227677077  0.1340170907442394   T   T   T
  0.2033634694233573  0.7840759167594084  0.1522308391829514   T   T   T
  0.7033615119993771  0.6948419835353458  0.1522754763258831   T   T   T
  0.7556640764393279  0.1858441990500775  0.1681609632453925   T   T   T
  0.2554746218798242  0.2949855211631284  0.1684556660235380   T   T   T
  0.0265882957742042  0.5487065284221325  0.1890216912795353   T   T   T
  0.5186105031617431  0.9311563961386233  0.1885043288191904   T   T   T
  0.0942692491428100  0.0444301889840124  0.1913374891994123   T   T   T
  0.6069018136163720  0.4392415763464788  0.1926144683373025   T   T   T
  0.8596651170936824  0.7962702968369367  0.2141208092667413   T   T   T
  0.3583939274949586  0.6892725891353522  0.2150161348647551   T   T   T
  0.4361109008159675  0.1736281710235921  0.2287214443748099   T   T   T
  0.9510877278997144  0.2900954394362389  0.2282725268756805   T   T   T
  0.6978394717011204  0.5601741670821211  0.2473946905785018   T   T   T
  0.1924714964817484  0.9337891422599832  0.2464753767684165   T   T   T
  0.3199634928648660  0.4388627813379556  0.2635284769761966   T   T   T
  0.8066462581684215  0.0500291647719501  0.2559112134756152   T   T   T
  0.0476487222563278  0.6825157143670419  0.2735177359024201   T   T   T
  0.5492676286168874  0.8173790898355593  0.2727762758086579   T   T   T
  0.9736672000141625  0.3351186725532738  0.3174871559668185   T   T   T
  0.5157113517331063  0.6023777902048087  0.3202012884027467   T   T   T
  0.0516053945150855  0.8692540373282048  0.3223947403535353   T   T   T
  0.5108632768037987  0.1111005240669097  0.3178615564283139   T   T   T
  0.4700214188715465  0.3486677724991080  0.3728726237268253   T   T   T
  0.0034045629233121  0.5983838593868823  0.3721528629179122   T   T   T
  0.5423894734305247  0.8660745888835948  0.3725511331179606   T   T   T
  0.9666574922826505  0.1196631647739388  0.3791438030123292   T   T   T
  0.9896388139387752  0.3634435461267425  0.4294717220193128   T   T   T
  0.5070090029964979  0.6128325239156680  0.4218650129531020   T   T   T
  0.0416019102564553  0.8626889531974137  0.4231663394716480   T   T   T
  0.5093218470675293  0.1064082177644892  0.4288488825118792   T   T   T
  0.4864398480456569  0.3649536349941239  0.4857270046189070   T   T   T
  0.9496765019639831  0.6320536248016905  0.4840778595292307   T   T   T
  0.5368261437591506  0.8980518691153585  0.4981049702003292   T   T   T
  0.0131368095218601  0.1018835103465844  0.4823895177889212   T   T   T
  0.4212498564442855  0.9000859238447316  0.4242771632656456   T   T   T
  0.8677127545328347  0.6784192370108113  0.4182235516559396   T   T   T
  0.1861747968466366  0.9103918768041052  0.4754652217560671   T   T   T
  0.2184490594426196  0.6911977068999788  0.4496812717445042   T   T   T
  0.7304141623574677  0.4894106558368471  0.4547163019486184   T   T   T
  0.1480842629325460  0.4570125411723716  0.4735967075830232   T   T   T
  0.6364159805365903  0.6604706736886891  0.3704047433680243   T   T   T
  0.4425305936328683  0.8958490563467875  0.3145078553335230   T   T   T
  0.5570846952392533  0.1411003178118597  0.3753883730927876   T   T   T
  0.2048547112637947  0.1997137654310359  0.3433571833873019   T   T   T
  0.7821107504612699  0.9536765332076579  0.4550521299809808   T   T   T
  0.3710234639765508  0.4185007493264989  0.4217904566705950   T   T   T
  0.6287490277756163  0.7307714868036689  0.4666712448929726   T   T   T
  0.8361071634706457  0.1699134508448653  0.2928433301337844   T   T   T
  0.2663812682311182  0.7228076535823571  0.3481359450360448   T   T   T
  0.1767570543045937  0.9426772024552400  0.3731684743300244   T   T   T
  0.8860328393868928  0.1615380482849438  0.4314011820087119   T   T   T
  0.0835681385379605  0.3932577602775752  0.3751769682604262   T   T   T
  0.3426775420510710  0.4069258704831519  0.3124950021369474   T   T   T
  0.2584443371682558  0.2328287308552655  0.4557133479732485   T   T   T
  0.7289842565526077  0.4543742734629815  0.3437609598687849   T   T   T
  0.9052977525595231  0.6647684806448170  0.3185124482279673   T   T   T
  0.5855772379473939  0.1360153812501841  0.4909782931574089   T   T   T
  0.7932190492889409  0.9963530473605634  0.3430098368896252   T   T   T
 
  0.00000000E+00  0.00000000E+00  0.00000000E+00
  0.00000000E+00  0.00000000E+00  0.00000000E+00
  0.00000000E+00  0.00000000E+00  0.00000000E+00
  0.00000000E+00  0.00000000E+00  0.00000000E+00
  0.00000000E+00  0.00000000E+00  0.00000000E+00
  0.00000000E+00  0.00000000E+00  0.00000000E+00
  0.00000000E+00  0.00000000E+00  0.00000000E+00
  0.00000000E+00  0.00000000E+00  0.00000000E+00
  0.00000000E+00  0.00000000E+00  0.00000000E+00
  0.00000000E+00  0.00000000E+00  0.00000000E+00
  0.00000000E+00  0.00000000E+00  0.00000000E+00
  0.00000000E+00  0.00000000E+00  0.00000000E+00
  0.00000000E+00  0.00000000E+00  0.00000000E+00
  0.00000000E+00  0.00000000E+00  0.00000000E+00
  0.00000000E+00  0.00000000E+00  0.00000000E+00
  0.00000000E+00  0.00000000E+00  0.00000000E+00
  0.00000000E+00  0.00000000E+00  0.00000000E+00
  0.00000000E+00  0.00000000E+00  0.00000000E+00
  0.00000000E+00  0.00000000E+00  0.00000000E+00
  0.00000000E+00  0.00000000E+00  0.00000000E+00
  0.00000000E+00  0.00000000E+00  0.00000000E+00
  0.00000000E+00  0.00000000E+00  0.00000000E+00
  0.00000000E+00  0.00000000E+00  0.00000000E+00
  0.00000000E+00  0.00000000E+00  0.00000000E+00
  0.00000000E+00  0.00000000E+00  0.00000000E+00
  0.00000000E+00  0.00000000E+00  0.00000000E+00
  0.00000000E+00  0.00000000E+00  0.00000000E+00
  0.00000000E+00  0.00000000E+00  0.00000000E+00
  0.00000000E+00  0.00000000E+00  0.00000000E+00
  0.00000000E+00  0.00000000E+00  0.00000000E+00
  0.00000000E+00  0.00000000E+00  0.00000000E+00
  0.00000000E+00  0.00000000E+00  0.00000000E+00
  0.00000000E+00  0.00000000E+00  0.00000000E+00
  0.00000000E+00  0.00000000E+00  0.00000000E+00
  0.00000000E+00  0.00000000E+00  0.00000000E+00
  0.00000000E+00  0.00000000E+00  0.00000000E+00
  0.00000000E+00  0.00000000E+00  0.00000000E+00
  0.00000000E+00  0.00000000E+00  0.00000000E+00
  0.00000000E+00  0.00000000E+00  0.00000000E+00
  0.00000000E+00  0.00000000E+00  0.00000000E+00
  0.00000000E+00  0.00000000E+00  0.00000000E+00
  0.00000000E+00  0.00000000E+00  0.00000000E+00
  0.00000000E+00  0.00000000E+00  0.00000000E+00
  0.00000000E+00  0.00000000E+00  0.00000000E+00
  0.00000000E+00  0.00000000E+00  0.00000000E+00
  0.00000000E+00  0.00000000E+00  0.00000000E+00
  0.00000000E+00  0.00000000E+00  0.00000000E+00
  0.00000000E+00  0.00000000E+00  0.00000000E+00
  0.00000000E+00  0.00000000E+00  0.00000000E+00
  0.00000000E+00  0.00000000E+00  0.00000000E+00
  0.00000000E+00  0.00000000E+00  0.00000000E+00
  0.00000000E+00  0.00000000E+00  0.00000000E+00
  0.00000000E+00  0.00000000E+00  0.00000000E+00
  0.00000000E+00  0.00000000E+00  0.00000000E+00
  0.00000000E+00  0.00000000E+00  0.00000000E+00
  0.00000000E+00  0.00000000E+00  0.00000000E+00
  0.00000000E+00  0.00000000E+00  0.00000000E+00
  0.00000000E+00  0.00000000E+00  0.00000000E+00
  0.00000000E+00  0.00000000E+00  0.00000000E+00
  0.00000000E+00  0.00000000E+00  0.00000000E+00
  0.00000000E+00  0.00000000E+00  0.00000000E+00
  0.00000000E+00  0.00000000E+00  0.00000000E+00
  0.00000000E+00  0.00000000E+00  0.00000000E+00
  0.00000000E+00  0.00000000E+00  0.00000000E+00
  0.00000000E+00  0.00000000E+00  0.00000000E+00
  0.00000000E+00  0.00000000E+00  0.00000000E+00
  0.00000000E+00  0.00000000E+00  0.00000000E+00
  0.00000000E+00  0.00000000E+00  0.00000000E+00
  0.00000000E+00  0.00000000E+00  0.00000000E+00
  0.00000000E+00  0.00000000E+00  0.00000000E+00
  0.00000000E+00  0.00000000E+00  0.00000000E+00
  0.00000000E+00  0.00000000E+00  0.00000000E+00
  0.00000000E+00  0.00000000E+00  0.00000000E+00
  0.00000000E+00  0.00000000E+00  0.00000000E+00
  0.00000000E+00  0.00000000E+00  0.00000000E+00
  0.00000000E+00  0.00000000E+00  0.00000000E+00
  0.00000000E+00  0.00000000E+00  0.00000000E+00
  0.00000000E+00  0.00000000E+00  0.00000000E+00
  0.00000000E+00  0.00000000E+00  0.00000000E+00
  0.00000000E+00  0.00000000E+00  0.00000000E+00
  0.00000000E+00  0.00000000E+00  0.00000000E+00
  0.00000000E+00  0.00000000E+00  0.00000000E+00
  0.00000000E+00  0.00000000E+00  0.00000000E+00
  0.00000000E+00  0.00000000E+00  0.00000000E+00
  0.00000000E+00  0.00000000E+00  0.00000000E+00
  0.00000000E+00  0.00000000E+00  0.00000000E+00
  0.00000000E+00  0.00000000E+00  0.00000000E+00
  0.00000000E+00  0.00000000E+00  0.00000000E+00
