Fe  Fe  H   O   S   Ni  Fe Co           
   1.00000000000000     
     5.6388600000000002    0.0000000000000000    0.0000000000000000
     0.0000000000000000   10.2679500000000008    0.0000000000000000
     0.0000000000000000    0.0000000000000000   41.0286899999999974
   Fe   Fe   H    O    S    Ni   Fe   Co
     6     6    12    24    16    22     1     1
Selective dynamics
Direct
  0.7537903382291431  0.1457362089391298  0.1201598500953676   T   T   T
  0.0322405730490131  0.6187790916077285  0.1434621929045398   T   T   T
  0.4404620744734877  0.1359952703507665  0.1801975877565097   T   T   T
  0.6908233164723636  0.6308513187979252  0.1997250778364389   T   T   T
  0.1184403639831776  0.1251257606141903  0.2352709039742617   T   T   T
  0.3863711926359261  0.6414897266930306  0.2612243513571207   T   T   T
  0.2524492990820840  0.3313841592242145  0.1207457889216351   T   T   T
  0.5366856638017199  0.8551392148467465  0.1429286271308484   T   T   T
  0.9374548108693908  0.3428074794810330  0.1815333214023880   T   T   T
  0.1912691393811668  0.8419120843355913  0.1974602320434657   T   T   T
  0.6203013735470310  0.3499382248496502  0.2405931666660356   T   T   T
  0.8956586584942922  0.8428326409168521  0.2593086219823776   T   T   T
  0.7721087933945164  0.3946932163018915  0.1225638727642375   T   T   T
  0.2733606201508635  0.0815327442200845  0.1218723957398415   T   T   T
  0.9595220652290479  0.9048579571949837  0.1264739557163942   T   T   T
  0.4574504882057395  0.5712421025612376  0.1271892384533973   T   T   T
  0.9634689134193651  0.0840670023220904  0.1791989403806541   T   T   T
  0.4738217313531990  0.3982003136880969  0.1808011231917542   T   T   T
  0.1699052509440512  0.5866320219778383  0.2008461555355560   T   T   T
  0.6648173522244814  0.8893420875539598  0.2002250443076159   T   T   T
  0.1791036086703281  0.3988338997293774  0.2542945674787885   T   T   T
  0.6706136308431691  0.0833953093381567  0.2457824824422644   T   T   T
  0.8551384786565918  0.5935541004759766  0.2581938554457807   T   T   T
  0.3630158692866395  0.8984929870865287  0.2537558962417143   T   T   T
  0.0630662497547317  0.1883604548425311  0.1086444281345453   T   T   T
  0.5628390025144242  0.2887408672832186  0.1091545537039123   T   T   T
  0.8030015331163814  0.9429299742911770  0.1219563098275881   T   T   T
  0.3014620990763109  0.5332162987503918  0.1223045523788808   T   T   T
  0.9172592733905748  0.4315796916535301  0.1340010213829213   T   T   T
  0.4171077791130954  0.0440309726251700  0.1334972924623909   T   T   T
  0.2060131503922306  0.7839200853519138  0.1509680288416427   T   T   T
  0.7073550900943268  0.6919445179386472  0.1513668547872065   T   T   T
  0.7648311547125894  0.1832791029403127  0.1682290970350528   T   T   T
  0.2628141477923503  0.2920853659359940  0.1683935872197187   T   T   T
  0.0313516837460963  0.5468613844016724  0.1884516091078083   T   T   T
  0.5262489579350960  0.9283386298305343  0.1876984126056827   T   T   T
  0.1036019860980063  0.0424963483703215  0.1911818649628961   T   T   T
  0.6135915877971759  0.4360157020564253  0.1926322314421310   T   T   T
  0.8710392071022003  0.7942124862190312  0.2131469239771126   T   T   T
  0.3663054694175042  0.6858987015212804  0.2136366528511547   T   T   T
  0.4458959859146503  0.1712334882430069  0.2285249813223747   T   T   T
  0.9605306306196609  0.2889221299841907  0.2283852501261306   T   T   T
  0.7086073609980826  0.5581738476736876  0.2471462499733790   T   T   T
  0.2032667221853394  0.9325670908130880  0.2459123147045528   T   T   T
  0.3280924131413465  0.4363916000137499  0.2630971457700444   T   T   T
  0.8206704707860597  0.0517858514520420  0.2572000579684309   T   T   T
  0.0595186634673582  0.6846445201719465  0.2737366195682328   T   T   T
  0.5645820302537166  0.8183206433892137  0.2699630079702066   T   T   T
  0.9754915180174002  0.3462369690331994  0.3181003114906249   T   T   T
  0.5172804779028931  0.6156588470470865  0.3199421413649924   T   T   T
  0.0297034521374821  0.8712935474429112  0.3248980852183989   T   T   T
  0.5363126519737306  0.1175482341843736  0.3223817824745382   T   T   T
  0.4645870008120954  0.3654235915106783  0.3732187467844518   T   T   T
  0.9985146706191914  0.6039750140633940  0.3738863211600933   T   T   T
  0.5088269336528451  0.8624393853890812  0.3767831507386469   T   T   T
  0.9943353020247475  0.1213887110955799  0.3775195689438711   T   T   T
  0.9875341171896408  0.3658101476691646  0.4277686767216804   T   T   T
  0.4958212847412561  0.6080074162033425  0.4262527791371296   T   T   T
  0.9948870942592818  0.8592989355820783  0.4260041062247176   T   T   T
  0.4850413319303140  0.1154022485897950  0.4267500608308973   T   T   T
  0.4674983443209311  0.3648394712128738  0.4848676225475614   T   T   T
  0.9617693091889818  0.6216993690621511  0.4828983835219829   T   T   T
  0.4668561264790978  0.8667909169539583  0.4816529551648340   T   T   T
  0.9622397550733597  0.1141772802576644  0.4823280397518063   T   T   T
  0.7261888512663826  0.4674225200335715  0.3448911147752216   T   T   T
  0.2259435305804038  0.2261477138326596  0.4548136921088425   T   T   T
  0.3425436700747121  0.4203116255626319  0.3126742818489159   T   T   T
  0.2304450401078951  0.7200555609369673  0.4533527627099862   T   T   T
  0.3714325639214503  0.9152299626555221  0.4259700341302731   T   T   T
  0.1368597123543702  0.9254509559230758  0.3767695314925468   T   T   T
  0.6093797960214988  0.1782664940477238  0.4764345122318538   T   T   T
  0.7689486037001744  0.9845630027523047  0.3506113442693118   T   T   T
  0.8743533017089106  0.6596883610942378  0.4256445356897277   T   T   T
  0.8610574067974753  0.1695330853973468  0.4263112063007611   T   T   T
  0.6095610608462377  0.6791800874461303  0.4761016674868730   T   T   T
  0.2706992088000839  0.7260638922784459  0.3500507296712630   T   T   T
  0.9153735663815615  0.6641318537910348  0.3190786877214506   T   T   T
  0.3700483983385269  0.4125151291054188  0.4242727061387734   T   T   T
  0.2329740648216317  0.2149118931910457  0.3427794787828166   T   T   T
  0.8398571886803701  0.1787094031475143  0.2930290090573724   T   T   T
  0.6321861435348273  0.6628620177569725  0.3766267739462579   T   T   T
  0.7262987468352802  0.4715877346689609  0.4553635085549267   T   T   T
  0.1132166164694184  0.9282827418289806  0.4758433524584364   T   T   T
  0.1282300272574718  0.4414907766307158  0.4754102048869097   T   T   T
  0.7319244118828738  0.9733546460833451  0.4533305942457399   T   T   T
  0.6124243600335055  0.1741387247105589  0.3753779982424365   T   T   T
  0.4553082493886750  0.8924236076712654  0.3105605469617920   T   T   T
  0.0797658540569069  0.3952364452960634  0.3752086963182989   T   T   T
 
  0.00000000E+00  0.00000000E+00  0.00000000E+00
  0.00000000E+00  0.00000000E+00  0.00000000E+00
  0.00000000E+00  0.00000000E+00  0.00000000E+00
  0.00000000E+00  0.00000000E+00  0.00000000E+00
  0.00000000E+00  0.00000000E+00  0.00000000E+00
  0.00000000E+00  0.00000000E+00  0.00000000E+00
  0.00000000E+00  0.00000000E+00  0.00000000E+00
  0.00000000E+00  0.00000000E+00  0.00000000E+00
  0.00000000E+00  0.00000000E+00  0.00000000E+00
  0.00000000E+00  0.00000000E+00  0.00000000E+00
  0.00000000E+00  0.00000000E+00  0.00000000E+00
  0.00000000E+00  0.00000000E+00  0.00000000E+00
  0.00000000E+00  0.00000000E+00  0.00000000E+00
  0.00000000E+00  0.00000000E+00  0.00000000E+00
  0.00000000E+00  0.00000000E+00  0.00000000E+00
  0.00000000E+00  0.00000000E+00  0.00000000E+00
  0.00000000E+00  0.00000000E+00  0.00000000E+00
  0.00000000E+00  0.00000000E+00  0.00000000E+00
  0.00000000E+00  0.00000000E+00  0.00000000E+00
  0.00000000E+00  0.00000000E+00  0.00000000E+00
  0.00000000E+00  0.00000000E+00  0.00000000E+00
  0.00000000E+00  0.00000000E+00  0.00000000E+00
  0.00000000E+00  0.00000000E+00  0.00000000E+00
  0.00000000E+00  0.00000000E+00  0.00000000E+00
  0.00000000E+00  0.00000000E+00  0.00000000E+00
  0.00000000E+00  0.00000000E+00  0.00000000E+00
  0.00000000E+00  0.00000000E+00  0.00000000E+00
  0.00000000E+00  0.00000000E+00  0.00000000E+00
  0.00000000E+00  0.00000000E+00  0.00000000E+00
  0.00000000E+00  0.00000000E+00  0.00000000E+00
  0.00000000E+00  0.00000000E+00  0.00000000E+00
  0.00000000E+00  0.00000000E+00  0.00000000E+00
  0.00000000E+00  0.00000000E+00  0.00000000E+00
  0.00000000E+00  0.00000000E+00  0.00000000E+00
  0.00000000E+00  0.00000000E+00  0.00000000E+00
  0.00000000E+00  0.00000000E+00  0.00000000E+00
  0.00000000E+00  0.00000000E+00  0.00000000E+00
  0.00000000E+00  0.00000000E+00  0.00000000E+00
  0.00000000E+00  0.00000000E+00  0.00000000E+00
  0.00000000E+00  0.00000000E+00  0.00000000E+00
  0.00000000E+00  0.00000000E+00  0.00000000E+00
  0.00000000E+00  0.00000000E+00  0.00000000E+00
  0.00000000E+00  0.00000000E+00  0.00000000E+00
  0.00000000E+00  0.00000000E+00  0.00000000E+00
  0.00000000E+00  0.00000000E+00  0.00000000E+00
  0.00000000E+00  0.00000000E+00  0.00000000E+00
  0.00000000E+00  0.00000000E+00  0.00000000E+00
  0.00000000E+00  0.00000000E+00  0.00000000E+00
  0.00000000E+00  0.00000000E+00  0.00000000E+00
  0.00000000E+00  0.00000000E+00  0.00000000E+00
  0.00000000E+00  0.00000000E+00  0.00000000E+00
  0.00000000E+00  0.00000000E+00  0.00000000E+00
  0.00000000E+00  0.00000000E+00  0.00000000E+00
  0.00000000E+00  0.00000000E+00  0.00000000E+00
  0.00000000E+00  0.00000000E+00  0.00000000E+00
  0.00000000E+00  0.00000000E+00  0.00000000E+00
  0.00000000E+00  0.00000000E+00  0.00000000E+00
  0.00000000E+00  0.00000000E+00  0.00000000E+00
  0.00000000E+00  0.00000000E+00  0.00000000E+00
  0.00000000E+00  0.00000000E+00  0.00000000E+00
  0.00000000E+00  0.00000000E+00  0.00000000E+00
  0.00000000E+00  0.00000000E+00  0.00000000E+00
  0.00000000E+00  0.00000000E+00  0.00000000E+00
  0.00000000E+00  0.00000000E+00  0.00000000E+00
  0.00000000E+00  0.00000000E+00  0.00000000E+00
  0.00000000E+00  0.00000000E+00  0.00000000E+00
  0.00000000E+00  0.00000000E+00  0.00000000E+00
  0.00000000E+00  0.00000000E+00  0.00000000E+00
  0.00000000E+00  0.00000000E+00  0.00000000E+00
  0.00000000E+00  0.00000000E+00  0.00000000E+00
  0.00000000E+00  0.00000000E+00  0.00000000E+00
  0.00000000E+00  0.00000000E+00  0.00000000E+00
  0.00000000E+00  0.00000000E+00  0.00000000E+00
  0.00000000E+00  0.00000000E+00  0.00000000E+00
  0.00000000E+00  0.00000000E+00  0.00000000E+00
  0.00000000E+00  0.00000000E+00  0.00000000E+00
  0.00000000E+00  0.00000000E+00  0.00000000E+00
  0.00000000E+00  0.00000000E+00  0.00000000E+00
  0.00000000E+00  0.00000000E+00  0.00000000E+00
  0.00000000E+00  0.00000000E+00  0.00000000E+00
  0.00000000E+00  0.00000000E+00  0.00000000E+00
  0.00000000E+00  0.00000000E+00  0.00000000E+00
  0.00000000E+00  0.00000000E+00  0.00000000E+00
  0.00000000E+00  0.00000000E+00  0.00000000E+00
  0.00000000E+00  0.00000000E+00  0.00000000E+00
  0.00000000E+00  0.00000000E+00  0.00000000E+00
  0.00000000E+00  0.00000000E+00  0.00000000E+00
  0.00000000E+00  0.00000000E+00  0.00000000E+00
