Fe  Fe  H   O   S   Ni  Fe Co           
   1.00000000000000     
     5.6388600000000002    0.0000000000000000    0.0000000000000000
     0.0000000000000000   10.2679500000000008    0.0000000000000000
     0.0000000000000000    0.0000000000000000   41.0286899999999974
   Fe   Fe   H    O    S    Ni   Fe   Co
     6     6    12    24    16    22     1     1
Selective dynamics
Direct
  0.7388275898622548  0.1491578481301969  0.1196815497536513   T   T   T
  0.0223715701269233  0.6225007299124525  0.1433625033262532   T   T   T
  0.4251986328655897  0.1396640244746375  0.1798780385603544   T   T   T
  0.6792491334979415  0.6339575552984236  0.1995336480297996   T   T   T
  0.1008383382366679  0.1274340516518916  0.2349574013585030   T   T   T
  0.3771987741466044  0.6472945622759866  0.2612233124179689   T   T   T
  0.2380118195849139  0.3344236860384632  0.1201575439804827   T   T   T
  0.5251883216557749  0.8588562006110420  0.1431487146909917   T   T   T
  0.9231117719538523  0.3452574953723016  0.1810113757572256   T   T   T
  0.1806525726221159  0.8455105544845823  0.1982031231290004   T   T   T
  0.6066190444487883  0.3531227513320990  0.2401466502321785   T   T   T
  0.8753674978796985  0.8439163002587446  0.2594892697563602   T   T   T
  0.7592201762710391  0.3993755040418919  0.1220174431359111   T   T   T
  0.2596479153966059  0.0837799491507144  0.1216817333004469   T   T   T
  0.9470173139359270  0.9090935229788437  0.1260176192417620   T   T   T
  0.4463806153845694  0.5743563451182894  0.1266106315644928   T   T   T
  0.9498676001521538  0.0853085145546718  0.1788238510060696   T   T   T
  0.4600616188240292  0.4020852047810562  0.1803194612525922   T   T   T
  0.1555956226431441  0.5883828987459341  0.2009562677172505   T   T   T
  0.6532169246674017  0.8936621210584408  0.2004769399295740   T   T   T
  0.1696640541346509  0.4060605266524450  0.2553486858336809   T   T   T
  0.6483371941153026  0.0830651148361071  0.2445320559342951   T   T   T
  0.8429537702372282  0.5957999195634428  0.2579704785207760   T   T   T
  0.3415622042417391  0.9026720342693192  0.2563067365978363   T   T   T
  0.0476841342887786  0.1919687205966588  0.1081563187485663   T   T   T
  0.5474024502591799  0.2910732008817182  0.1083244233323238   T   T   T
  0.7900003418239550  0.9464538156624193  0.1216075894656968   T   T   T
  0.2897589099508825  0.5369839008377906  0.1218765675220407   T   T   T
  0.9037967082087425  0.4357245201031751  0.1335716507053531   T   T   T
  0.4032690465450610  0.0471085771660937  0.1334385434706290   T   T   T
  0.1979782821343284  0.7860711158922377  0.1515609201122246   T   T   T
  0.6986003123269863  0.6964814380057042  0.1513948021749707   T   T   T
  0.7498368390623250  0.1866485878385732  0.1676866142062420   T   T   T
  0.2489560083858866  0.2957329074695343  0.1678248429128662   T   T   T
  0.0184773323174569  0.5494538889308266  0.1882999573223184   T   T   T
  0.5149074265705981  0.9323793052698615  0.1879715121993585   T   T   T
  0.0902540831469446  0.0446634026818703  0.1908389324404572   T   T   T
  0.6002574529005205  0.4394498911885832  0.1921928234504582   T   T   T
  0.8579711623256018  0.7963969125179816  0.2134006600392813   T   T   T
  0.3544135542390585  0.6894342438201982  0.2142952585090343   T   T   T
  0.4277134803190763  0.1751176110359032  0.2281756270670820   T   T   T
  0.9450777735983885  0.2907660176603385  0.2275451074939319   T   T   T
  0.6947538953290252  0.5611964517638239  0.2470788361942577   T   T   T
  0.1873279111077269  0.9349989391219350  0.2463712651294854   T   T   T
  0.3200033214795951  0.4419629822115472  0.2639694813297571   T   T   T
  0.7996282664086378  0.0486568971490068  0.2551660418560016   T   T   T
  0.0476394628773900  0.6841950449418653  0.2733748866023726   T   T   T
  0.5481979330132092  0.8152772957551503  0.2712870804857947   T   T   T
  0.9550844650126470  0.3395404996061142  0.3135052446614358   T   T   T
  0.5265956479703932  0.6123893038216953  0.3224086250040610   T   T   T
  0.0538219867169972  0.8598292954510327  0.3250079351231179   T   T   T
  0.4976872424655073  0.0935642003311027  0.3181493910890652   T   T   T
  0.4643287686377985  0.3432103179189140  0.3687882625167591   T   T   T
  0.0078708162407864  0.5937633394125958  0.3757266685494597   T   T   T
  0.5379349707549769  0.8561788130016721  0.3765963233660605   T   T   T
  0.9706662440588111  0.1142503525872590  0.3747785532145091   T   T   T
  0.0604358025122245  0.3680666683558317  0.4283282569923136   T   T   T
  0.5202881961420163  0.5850575325045122  0.4282192685036608   T   T   T
  0.0257785688952083  0.8666740761556845  0.4268413436767167   T   T   T
  0.4932360045640327  0.1308952409772642  0.4282572472714032   T   T   T
  0.6067483520686536  0.3962494571734620  0.5050834319749904   T   T   T
  0.0175925004540289  0.6173030997006109  0.4839552080202514   T   T   T
  0.5134306309034241  0.8672633145345567  0.4766869349707381   T   T   T
  0.9515075312870015  0.1152815480629745  0.4928162148026007   T   T   T
  0.8144030881196279  0.2263726388709072  0.4125372286448326   T   T   T
  0.6435308644511545  0.6680355453185720  0.4765983958934701   T   T   T
  0.2741157062171320  0.7187787799338670  0.3529622217684533   T   T   T
  0.9259017472684152  0.6556902030644427  0.3196145559012815   T   T   T
  0.5242891407450077  0.1334071127364668  0.3728263467944724   T   T   T
  0.7295948562483709  0.4549642650046892  0.3439577197443290   T   T   T
  0.0883997315330946  0.3889932609921446  0.3747238708165973   T   T   T
  0.7711320359680661  0.0045208434157292  0.4522033994142677   T   T   T
  0.8967880599832884  0.6597579844284623  0.4261076406287741   T   T   T
  0.7992175569245277  0.4577036453738796  0.4594386516409426   T   T   T
  0.6398351148121260  0.6495990556090551  0.3773799433316156   T   T   T
  0.1631523544284940  0.9321813561374651  0.3759301627919386   T   T   T
  0.4439960487116038  0.3737968950489167  0.4241921028093526   T   T   T
  0.6424675537451588  0.2293420317091822  0.4719804396056206   T   T   T
  0.1787972958432605  0.1912473005607290  0.4544984147968257   T   T   T
  0.2642346013075956  0.7249881055937010  0.4527869240952908   T   T   T
  0.8225818476104637  0.1599520029291119  0.2939737888144450   T   T   T
  0.1920966503584451  0.2055919315562997  0.3386314303766140   T   T   T
  0.4134362610250105  0.9225004532415390  0.4244084057507511   T   T   T
  0.1657536944606026  0.9566238735016027  0.4727862664940332   T   T   T
  0.4466916516306014  0.8760901702880003  0.3144054762850635   T   T   T
  0.3215759648068621  0.4228392144202525  0.3137456761640465   T   T   T
  0.2227532007802747  0.4075506580947403  0.4862091326137724   T   T   T
  0.7812270788320269  0.9813555284801685  0.3444841172881076   T   T   T
 
  0.00000000E+00  0.00000000E+00  0.00000000E+00
  0.00000000E+00  0.00000000E+00  0.00000000E+00
  0.00000000E+00  0.00000000E+00  0.00000000E+00
  0.00000000E+00  0.00000000E+00  0.00000000E+00
  0.00000000E+00  0.00000000E+00  0.00000000E+00
  0.00000000E+00  0.00000000E+00  0.00000000E+00
  0.00000000E+00  0.00000000E+00  0.00000000E+00
  0.00000000E+00  0.00000000E+00  0.00000000E+00
  0.00000000E+00  0.00000000E+00  0.00000000E+00
  0.00000000E+00  0.00000000E+00  0.00000000E+00
  0.00000000E+00  0.00000000E+00  0.00000000E+00
  0.00000000E+00  0.00000000E+00  0.00000000E+00
  0.00000000E+00  0.00000000E+00  0.00000000E+00
  0.00000000E+00  0.00000000E+00  0.00000000E+00
  0.00000000E+00  0.00000000E+00  0.00000000E+00
  0.00000000E+00  0.00000000E+00  0.00000000E+00
  0.00000000E+00  0.00000000E+00  0.00000000E+00
  0.00000000E+00  0.00000000E+00  0.00000000E+00
  0.00000000E+00  0.00000000E+00  0.00000000E+00
  0.00000000E+00  0.00000000E+00  0.00000000E+00
  0.00000000E+00  0.00000000E+00  0.00000000E+00
  0.00000000E+00  0.00000000E+00  0.00000000E+00
  0.00000000E+00  0.00000000E+00  0.00000000E+00
  0.00000000E+00  0.00000000E+00  0.00000000E+00
  0.00000000E+00  0.00000000E+00  0.00000000E+00
  0.00000000E+00  0.00000000E+00  0.00000000E+00
  0.00000000E+00  0.00000000E+00  0.00000000E+00
  0.00000000E+00  0.00000000E+00  0.00000000E+00
  0.00000000E+00  0.00000000E+00  0.00000000E+00
  0.00000000E+00  0.00000000E+00  0.00000000E+00
  0.00000000E+00  0.00000000E+00  0.00000000E+00
  0.00000000E+00  0.00000000E+00  0.00000000E+00
  0.00000000E+00  0.00000000E+00  0.00000000E+00
  0.00000000E+00  0.00000000E+00  0.00000000E+00
  0.00000000E+00  0.00000000E+00  0.00000000E+00
  0.00000000E+00  0.00000000E+00  0.00000000E+00
  0.00000000E+00  0.00000000E+00  0.00000000E+00
  0.00000000E+00  0.00000000E+00  0.00000000E+00
  0.00000000E+00  0.00000000E+00  0.00000000E+00
  0.00000000E+00  0.00000000E+00  0.00000000E+00
  0.00000000E+00  0.00000000E+00  0.00000000E+00
  0.00000000E+00  0.00000000E+00  0.00000000E+00
  0.00000000E+00  0.00000000E+00  0.00000000E+00
  0.00000000E+00  0.00000000E+00  0.00000000E+00
  0.00000000E+00  0.00000000E+00  0.00000000E+00
  0.00000000E+00  0.00000000E+00  0.00000000E+00
  0.00000000E+00  0.00000000E+00  0.00000000E+00
  0.00000000E+00  0.00000000E+00  0.00000000E+00
  0.00000000E+00  0.00000000E+00  0.00000000E+00
  0.00000000E+00  0.00000000E+00  0.00000000E+00
  0.00000000E+00  0.00000000E+00  0.00000000E+00
  0.00000000E+00  0.00000000E+00  0.00000000E+00
  0.00000000E+00  0.00000000E+00  0.00000000E+00
  0.00000000E+00  0.00000000E+00  0.00000000E+00
  0.00000000E+00  0.00000000E+00  0.00000000E+00
  0.00000000E+00  0.00000000E+00  0.00000000E+00
  0.00000000E+00  0.00000000E+00  0.00000000E+00
  0.00000000E+00  0.00000000E+00  0.00000000E+00
  0.00000000E+00  0.00000000E+00  0.00000000E+00
  0.00000000E+00  0.00000000E+00  0.00000000E+00
  0.00000000E+00  0.00000000E+00  0.00000000E+00
  0.00000000E+00  0.00000000E+00  0.00000000E+00
  0.00000000E+00  0.00000000E+00  0.00000000E+00
  0.00000000E+00  0.00000000E+00  0.00000000E+00
  0.00000000E+00  0.00000000E+00  0.00000000E+00
  0.00000000E+00  0.00000000E+00  0.00000000E+00
  0.00000000E+00  0.00000000E+00  0.00000000E+00
  0.00000000E+00  0.00000000E+00  0.00000000E+00
  0.00000000E+00  0.00000000E+00  0.00000000E+00
  0.00000000E+00  0.00000000E+00  0.00000000E+00
  0.00000000E+00  0.00000000E+00  0.00000000E+00
  0.00000000E+00  0.00000000E+00  0.00000000E+00
  0.00000000E+00  0.00000000E+00  0.00000000E+00
  0.00000000E+00  0.00000000E+00  0.00000000E+00
  0.00000000E+00  0.00000000E+00  0.00000000E+00
  0.00000000E+00  0.00000000E+00  0.00000000E+00
  0.00000000E+00  0.00000000E+00  0.00000000E+00
  0.00000000E+00  0.00000000E+00  0.00000000E+00
  0.00000000E+00  0.00000000E+00  0.00000000E+00
  0.00000000E+00  0.00000000E+00  0.00000000E+00
  0.00000000E+00  0.00000000E+00  0.00000000E+00
  0.00000000E+00  0.00000000E+00  0.00000000E+00
  0.00000000E+00  0.00000000E+00  0.00000000E+00
  0.00000000E+00  0.00000000E+00  0.00000000E+00
  0.00000000E+00  0.00000000E+00  0.00000000E+00
  0.00000000E+00  0.00000000E+00  0.00000000E+00
  0.00000000E+00  0.00000000E+00  0.00000000E+00
  0.00000000E+00  0.00000000E+00  0.00000000E+00
