Fe  Fe  H   O   S   Ni  Fe Co           
   1.00000000000000     
     5.6388600000000002    0.0000000000000000    0.0000000000000000
     0.0000000000000000   10.2679500000000008    0.0000000000000000
     0.0000000000000000    0.0000000000000000   41.0286899999999974
   Fe   Fe   H    O    S    Ni   Fe   Co
     6     6    12    24    16    22     1     1
Selective dynamics
Direct
  0.7391762812944734  0.1531233560727808  0.1187700343317923   T   T   T
  0.0246868279174644  0.6266966748891407  0.1428536446645551   T   T   T
  0.4254093821024560  0.1443159510008702  0.1788279041601330   T   T   T
  0.6813785283849634  0.6386798936390746  0.1991341814062855   T   T   T
  0.1004712732026739  0.1314049947847667  0.2338033156074516   T   T   T
  0.3776424969241856  0.6559401617334438  0.2609111221583978   T   T   T
  0.2385343118611975  0.3384745550512223  0.1192128357364791   T   T   T
  0.5273958118537596  0.8626863528515172  0.1426301964442573   T   T   T
  0.9239193198647848  0.3493193654988965  0.1799320788603880   T   T   T
  0.1831738573613703  0.8501622588236354  0.1976378680282496   T   T   T
  0.6126990571671774  0.3602693636763318  0.2397258247247365   T   T   T
  0.8724381740197225  0.8505218514299961  0.2584292348585746   T   T   T
  0.7593196196087111  0.4034778174102827  0.1213118514123361   T   T   T
  0.2598712233182191  0.0872769739892488  0.1208237547336165   T   T   T
  0.9495853227747039  0.9133692091292059  0.1257076256836053   T   T   T
  0.4471608886557716  0.5772591111802907  0.1259060285637739   T   T   T
  0.9506896266567384  0.0881133576383588  0.1778195230824823   T   T   T
  0.4617512326979351  0.4073023452723437  0.1798593259633096   T   T   T
  0.1599780958373559  0.5923403652139647  0.2004085968101530   T   T   T
  0.6543670761424573  0.8981284084162708  0.1998141675015503   T   T   T
  0.1693978285075741  0.4142489487673146  0.2518445626899437   T   T   T
  0.6392660649890507  0.0856441369134661  0.2409724686030509   T   T   T
  0.8471131514736593  0.6040076424220346  0.2576884091333947   T   T   T
  0.3391460420315043  0.9089865606309522  0.2568891883322108   T   T   T
  0.0486355533519647  0.1954834869568677  0.1074263938361711   T   T   T
  0.5481209336861353  0.2956705514536631  0.1074598240516802   T   T   T
  0.7924961812919498  0.9502801443741237  0.1211362763175448   T   T   T
  0.2901937531083880  0.5408128241349272  0.1209852486381857   T   T   T
  0.9039765891842713  0.4398117524124436  0.1328532378258034   T   T   T
  0.4039323954471094  0.0507013734850454  0.1324954242359807   T   T   T
  0.2009660131299691  0.7897063283452554  0.1511242308072799   T   T   T
  0.7013389947488045  0.7004997260516762  0.1510231257772388   T   T   T
  0.7501535113014307  0.1912058994088558  0.1666447665728215   T   T   T
  0.2498613235263383  0.3000346902714587  0.1668302177273852   T   T   T
  0.0239521470015820  0.5534871526758789  0.1876190674649733   T   T   T
  0.5154737967024897  0.9366370809348746  0.1874200447728106   T   T   T
  0.0916556380717601  0.0482258173302625  0.1897413027941142   T   T   T
  0.6016857245608056  0.4449447667675680  0.1916845560154617   T   T   T
  0.8599151839134703  0.8004731959175962  0.2126870062630199   T   T   T
  0.3567342811744099  0.6956726253243216  0.2138161280131385   T   T   T
  0.4268402456337592  0.1798077961504916  0.2269829787597735   T   T   T
  0.9460208051768010  0.2959989020196925  0.2264631963035745   T   T   T
  0.7002574418015300  0.5694922443401164  0.2466024056104438   T   T   T
  0.1861248128141699  0.9409430401565231  0.2464275775725688   T   T   T
  0.3185633083406415  0.4511391365404321  0.2606858503296537   T   T   T
  0.7914969530261795  0.0503388986604830  0.2516594105013980   T   T   T
  0.0489232001657317  0.6958300161341613  0.2737688699192383   T   T   T
  0.5475229788354236  0.8230636518371321  0.2717564156395578   T   T   T
  0.9398308782160916  0.3525633394945856  0.3053776892299935   T   T   T
  0.5289625688487647  0.6148459207890177  0.3211596894674723   T   T   T
  0.0585479971112931  0.8700608398888957  0.3280129305955156   T   T   T
  0.5377246318952359  0.0928869666727471  0.3214354642219739   T   T   T
  0.4111804005221127  0.3607988374477348  0.3632249481786918   T   T   T
  0.0038825642557263  0.5777664868388357  0.3733665294831258   T   T   T
  0.5236624570078350  0.8494780169441433  0.3789887679712947   T   T   T
  0.9889479600048214  0.1196363529515593  0.3832243420253219   T   T   T
  0.0535760873992914  0.3826894043610315  0.4372856386065472   T   T   T
  0.5284260886359677  0.5617049519027807  0.4267029936623784   T   T   T
  0.0209283868442927  0.8438226333778482  0.4264631825314337   T   T   T
  0.4919405746065280  0.1234679357259491  0.4352958300980848   T   T   T
  0.4884314501267258  0.3434688556181448  0.5026778901736886   T   T   T
  0.0158476170172260  0.6610986442712766  0.4914038601454641   T   T   T
  0.5065587314493775  0.8440602857913653  0.4763083678923624   T   T   T
  0.0047593670298879  0.0802179890147529  0.4879282724382530   T   T   T
  0.2760071126175274  0.6984377922732913  0.4490143985659502   T   T   T
  0.1538404605947407  0.9228849494548580  0.3785775000558949   T   T   T
  0.2707479564500578  0.7132856311691536  0.3525408981115506   T   T   T
  0.1212023252251956  0.8784900469892065  0.4801718338635427   T   T   T
  0.4693724174832181  0.8752291471469549  0.3168795483191513   T   T   T
  0.6581242981124160  0.6504063753489815  0.4736368559193828   T   T   T
  0.3178545011465526  0.4289620422929447  0.3096904569809172   T   T   T
  0.7348640801940004  0.4518920105394074  0.3432933684119190   T   T   T
  0.8367450270810234  0.2127731678631035  0.4267183471686344   T   T   T
  0.6661875995119756  0.1769279014792044  0.4825826696446776   T   T   T
  0.6569671247889765  0.2059386403333316  0.3668889174160492   T   T   T
  0.7779451769239866  0.9800776603212537  0.3527461536012715   T   T   T
  0.9081303543367961  0.6309879352540760  0.4242668791040456   T   T   T
  0.6372877760639283  0.6439530149251046  0.3761073710702238   T   T   T
  0.7702710317552425  0.9781506863835334  0.4536080190318280   T   T   T
  0.9190087224123019  0.6676127099712335  0.3192521067749873   T   T   T
  0.0435291189773802  0.3673253060157050  0.3835373552200748   T   T   T
  0.8034306616326589  0.1706202678674950  0.2881586752595270   T   T   T
  0.3969584621550199  0.9170327073554535  0.4271399608007546   T   T   T
  0.4344146220567956  0.3379608968227407  0.4171773568327656   T   T   T
  0.2382189836617470  0.2321247332525505  0.4666629731741361   T   T   T
  0.7058191137483543  0.4168772489949381  0.4610111525684643   T   T   T
  0.1702729139445621  0.1949056736143267  0.3340562945569271   T   T   T
  0.2592251375113265  0.4908982351212131  0.4800132115851775   T   T   T
 
  0.00000000E+00  0.00000000E+00  0.00000000E+00
  0.00000000E+00  0.00000000E+00  0.00000000E+00
  0.00000000E+00  0.00000000E+00  0.00000000E+00
  0.00000000E+00  0.00000000E+00  0.00000000E+00
  0.00000000E+00  0.00000000E+00  0.00000000E+00
  0.00000000E+00  0.00000000E+00  0.00000000E+00
  0.00000000E+00  0.00000000E+00  0.00000000E+00
  0.00000000E+00  0.00000000E+00  0.00000000E+00
  0.00000000E+00  0.00000000E+00  0.00000000E+00
  0.00000000E+00  0.00000000E+00  0.00000000E+00
  0.00000000E+00  0.00000000E+00  0.00000000E+00
  0.00000000E+00  0.00000000E+00  0.00000000E+00
  0.00000000E+00  0.00000000E+00  0.00000000E+00
  0.00000000E+00  0.00000000E+00  0.00000000E+00
  0.00000000E+00  0.00000000E+00  0.00000000E+00
  0.00000000E+00  0.00000000E+00  0.00000000E+00
  0.00000000E+00  0.00000000E+00  0.00000000E+00
  0.00000000E+00  0.00000000E+00  0.00000000E+00
  0.00000000E+00  0.00000000E+00  0.00000000E+00
  0.00000000E+00  0.00000000E+00  0.00000000E+00
  0.00000000E+00  0.00000000E+00  0.00000000E+00
  0.00000000E+00  0.00000000E+00  0.00000000E+00
  0.00000000E+00  0.00000000E+00  0.00000000E+00
  0.00000000E+00  0.00000000E+00  0.00000000E+00
  0.00000000E+00  0.00000000E+00  0.00000000E+00
  0.00000000E+00  0.00000000E+00  0.00000000E+00
  0.00000000E+00  0.00000000E+00  0.00000000E+00
  0.00000000E+00  0.00000000E+00  0.00000000E+00
  0.00000000E+00  0.00000000E+00  0.00000000E+00
  0.00000000E+00  0.00000000E+00  0.00000000E+00
  0.00000000E+00  0.00000000E+00  0.00000000E+00
  0.00000000E+00  0.00000000E+00  0.00000000E+00
  0.00000000E+00  0.00000000E+00  0.00000000E+00
  0.00000000E+00  0.00000000E+00  0.00000000E+00
  0.00000000E+00  0.00000000E+00  0.00000000E+00
  0.00000000E+00  0.00000000E+00  0.00000000E+00
  0.00000000E+00  0.00000000E+00  0.00000000E+00
  0.00000000E+00  0.00000000E+00  0.00000000E+00
  0.00000000E+00  0.00000000E+00  0.00000000E+00
  0.00000000E+00  0.00000000E+00  0.00000000E+00
  0.00000000E+00  0.00000000E+00  0.00000000E+00
  0.00000000E+00  0.00000000E+00  0.00000000E+00
  0.00000000E+00  0.00000000E+00  0.00000000E+00
  0.00000000E+00  0.00000000E+00  0.00000000E+00
  0.00000000E+00  0.00000000E+00  0.00000000E+00
  0.00000000E+00  0.00000000E+00  0.00000000E+00
  0.00000000E+00  0.00000000E+00  0.00000000E+00
  0.00000000E+00  0.00000000E+00  0.00000000E+00
  0.00000000E+00  0.00000000E+00  0.00000000E+00
  0.00000000E+00  0.00000000E+00  0.00000000E+00
  0.00000000E+00  0.00000000E+00  0.00000000E+00
  0.00000000E+00  0.00000000E+00  0.00000000E+00
  0.00000000E+00  0.00000000E+00  0.00000000E+00
  0.00000000E+00  0.00000000E+00  0.00000000E+00
  0.00000000E+00  0.00000000E+00  0.00000000E+00
  0.00000000E+00  0.00000000E+00  0.00000000E+00
  0.00000000E+00  0.00000000E+00  0.00000000E+00
  0.00000000E+00  0.00000000E+00  0.00000000E+00
  0.00000000E+00  0.00000000E+00  0.00000000E+00
  0.00000000E+00  0.00000000E+00  0.00000000E+00
  0.00000000E+00  0.00000000E+00  0.00000000E+00
  0.00000000E+00  0.00000000E+00  0.00000000E+00
  0.00000000E+00  0.00000000E+00  0.00000000E+00
  0.00000000E+00  0.00000000E+00  0.00000000E+00
  0.00000000E+00  0.00000000E+00  0.00000000E+00
  0.00000000E+00  0.00000000E+00  0.00000000E+00
  0.00000000E+00  0.00000000E+00  0.00000000E+00
  0.00000000E+00  0.00000000E+00  0.00000000E+00
  0.00000000E+00  0.00000000E+00  0.00000000E+00
  0.00000000E+00  0.00000000E+00  0.00000000E+00
  0.00000000E+00  0.00000000E+00  0.00000000E+00
  0.00000000E+00  0.00000000E+00  0.00000000E+00
  0.00000000E+00  0.00000000E+00  0.00000000E+00
  0.00000000E+00  0.00000000E+00  0.00000000E+00
  0.00000000E+00  0.00000000E+00  0.00000000E+00
  0.00000000E+00  0.00000000E+00  0.00000000E+00
  0.00000000E+00  0.00000000E+00  0.00000000E+00
  0.00000000E+00  0.00000000E+00  0.00000000E+00
  0.00000000E+00  0.00000000E+00  0.00000000E+00
  0.00000000E+00  0.00000000E+00  0.00000000E+00
  0.00000000E+00  0.00000000E+00  0.00000000E+00
  0.00000000E+00  0.00000000E+00  0.00000000E+00
  0.00000000E+00  0.00000000E+00  0.00000000E+00
  0.00000000E+00  0.00000000E+00  0.00000000E+00
  0.00000000E+00  0.00000000E+00  0.00000000E+00
  0.00000000E+00  0.00000000E+00  0.00000000E+00
  0.00000000E+00  0.00000000E+00  0.00000000E+00
  0.00000000E+00  0.00000000E+00  0.00000000E+00
