Fe  Fe  H   O   S   Ni  Fe Co           
   1.00000000000000     
     5.6388600000000002    0.0000000000000000    0.0000000000000000
     0.0000000000000000   10.2679500000000008    0.0000000000000000
     0.0000000000000000    0.0000000000000000   41.0286899999999974
   Fe   Fe   H    O    S    Ni   Fe   Co
     6     6    12    24    16    22     1     1
Selective dynamics
Direct
  0.7514052749855071  0.1474446519674143  0.1199683757635145   T   T   T
  0.0370912805017314  0.6214266163053663  0.1434561070583730   T   T   T
  0.4387851065210150  0.1378749686208816  0.1801512051721219   T   T   T
  0.6932110191043197  0.6349426165534212  0.1987162078302768   T   T   T
  0.1155938297009060  0.1265577031686907  0.2352913875299312   T   T   T
  0.4068805180938438  0.6506119777370059  0.2608999345775256   T   T   T
  0.2507730977834182  0.3326766201658620  0.1204276342826515   T   T   T
  0.5349818387380177  0.8580444621100264  0.1432895840446368   T   T   T
  0.9370070779292404  0.3439812814736405  0.1812221421730958   T   T   T
  0.1909773020701274  0.8448369961668954  0.1986104556674966   T   T   T
  0.6213891001013693  0.3513330419811583  0.2402454816001996   T   T   T
  0.8888125664526836  0.8488131970627629  0.2608382460554411   T   T   T
  0.7724113666612441  0.3973894907764591  0.1224768231870086   T   T   T
  0.2703210758085300  0.0833218650598214  0.1219015271809948   T   T   T
  0.9560999434463816  0.9074683583097208  0.1256859766896360   T   T   T
  0.4584586494558331  0.5719257782250796  0.1258930365790581   T   T   T
  0.9611966428344533  0.0845451760353527  0.1793129218615917   T   T   T
  0.4753315239596000  0.4005767643404494  0.1803846130256191   T   T   T
  0.1728429369606811  0.5877405556894415  0.2010702911726783   T   T   T
  0.6655320025004616  0.8922095603977881  0.2005237592240103   T   T   T
  0.1876286378616611  0.4035828334759592  0.2542326002459403   T   T   T
  0.6631047070817156  0.0846344394444609  0.2450172369020588   T   T   T
  0.8694412007083875  0.5971660611349560  0.2546994916928235   T   T   T
  0.3551406702681642  0.9031189963120637  0.2569778544023518   T   T   T
  0.0608085539796225  0.1898647827937195  0.1085262845148539   T   T   T
  0.5610085124420744  0.2901986427369414  0.1088696428858830   T   T   T
  0.7989528567819016  0.9449027936010213  0.1214360576020136   T   T   T
  0.3010480561768946  0.5349551274225740  0.1215377559828542   T   T   T
  0.9173129096420192  0.4338539485712888  0.1339717318399283   T   T   T
  0.4143414756254356  0.0462352804636688  0.1335809379971527   T   T   T
  0.2102162784524357  0.7849757402784038  0.1515345461042075   T   T   T
  0.7113805678829238  0.6953484389653308  0.1514764271622542   T   T   T
  0.7634386194574267  0.1842897594733102  0.1680967540019982   T   T   T
  0.2620657258143387  0.2938204623564774  0.1680637252947190   T   T   T
  0.0362056680592624  0.5485001544760676  0.1883810867091223   T   T   T
  0.5259766919327844  0.9310303777223963  0.1880584952580703   T   T   T
  0.1017763254156454  0.0435811881072867  0.1913211989748907   T   T   T
  0.6149443450728176  0.4380815333341500  0.1922785560011841   T   T   T
  0.8697029725182595  0.7974947230359868  0.2135844031933988   T   T   T
  0.3725762673684234  0.6895962107727380  0.2138977567335973   T   T   T
  0.4431557630714212  0.1731387326537603  0.2285494579173182   T   T   T
  0.9597949187576734  0.2905565893448062  0.2280525273748142   T   T   T
  0.7134896517157489  0.5604500182743261  0.2467255027053601   T   T   T
  0.2027369780456175  0.9345827570754275  0.2463674780101151   T   T   T
  0.3362908881679884  0.4389276679444296  0.2635846135817170   T   T   T
  0.8137884081375969  0.0521913011235672  0.2563671339910273   T   T   T
  0.0699342376111152  0.6814995812276849  0.2705451914463036   T   T   T
  0.5603642796544445  0.8171425451801277  0.2734821983713046   T   T   T
  0.9642636828808632  0.3439464500579019  0.3168495906696817   T   T   T
  0.5193400349772187  0.6096234809916483  0.3224256649617093   T   T   T
  0.0387554788819224  0.8660515955562190  0.3218482898321012   T   T   T
  0.5144479777077889  0.1082267839851740  0.3211133040327638   T   T   T
  0.4585237241161310  0.3569078454617173  0.3749288225251465   T   T   T
  0.9950004242112392  0.6037935586340225  0.3763494859937306   T   T   T
  0.5103513812001134  0.8638705518469388  0.3755536163507743   T   T   T
  0.9907714625908588  0.1126389815936695  0.3750567794226714   T   T   T
  0.9748349416669134  0.3611839519729661  0.4275996035448159   T   T   T
  0.4927923789161133  0.6070744672592671  0.4263577778994750   T   T   T
  0.9989404186540506  0.8621150832044210  0.4264336370276852   T   T   T
  0.4925010708481137  0.1168365304959109  0.4275065736849416   T   T   T
  0.4473302870647344  0.3746442294995023  0.4886690151646373   T   T   T
  0.9730462379602370  0.6228017482398229  0.4847019215432198   T   T   T
  0.4766778559588319  0.8665574076879659  0.4814334400654417   T   T   T
  0.9842513073032783  0.1089243993903692  0.4873785666191665   T   T   T
  0.3476494034748048  0.4143330852995003  0.4242025853822484   T   T   T
  0.4386502564980941  0.8937429268484709  0.3162070119164427   T   T   T
  0.1190703091053361  0.9233402519610644  0.4765069169853114   T   T   T
  0.8733835314631258  0.6600012725098630  0.4263545271434174   T   T   T
  0.7076142655750707  0.4628893889402431  0.4548649071096698   T   T   T
  0.6187466331711489  0.6780841041278746  0.4757804260709644   T   T   T
  0.6016488661667673  0.1642294973874381  0.3741602713461304   T   T   T
  0.0845212857974311  0.4019371731068410  0.3755205849803175   T   T   T
  0.6265903073290195  0.6612157865011258  0.3759009250475124   T   T   T
  0.7236807091410028  0.4561174076880497  0.3468989470640482   T   T   T
  0.2246822028122198  0.2225051713887677  0.4553598550352704   T   T   T
  0.7411515960749708  0.9787151973554501  0.4541795854782631   T   T   T
  0.1000650489632016  0.4330825734328868  0.4754559639166365   T   T   T
  0.3323249796152855  0.4220211675351541  0.3130247901758257   T   T   T
  0.2253530625565960  0.2206425690639199  0.3431495636528956   T   T   T
  0.2572571931980010  0.7206321889394989  0.3502238657812706   T   T   T
  0.8713336707570700  0.1650511887079103  0.4228663223377990   T   T   T
  0.7740393957541514  0.9809525622583897  0.3463722945198279   T   T   T
  0.8243698547597936  0.1719906862642884  0.2934692391251628   T   T   T
  0.1358019592962870  0.9195494220849271  0.3755835939952999   T   T   T
  0.3784537786886686  0.9154746658121309  0.4258536283640373   T   T   T
  0.2358176262796529  0.7205363226829810  0.4534485803243378   T   T   T
  0.9629398253857229  0.6210761344183930  0.3127446010464600   T   T   T
  0.6463432518849993  0.2035728203571319  0.4768785662897658   T   T   T
 
  0.00000000E+00  0.00000000E+00  0.00000000E+00
  0.00000000E+00  0.00000000E+00  0.00000000E+00
  0.00000000E+00  0.00000000E+00  0.00000000E+00
  0.00000000E+00  0.00000000E+00  0.00000000E+00
  0.00000000E+00  0.00000000E+00  0.00000000E+00
  0.00000000E+00  0.00000000E+00  0.00000000E+00
  0.00000000E+00  0.00000000E+00  0.00000000E+00
  0.00000000E+00  0.00000000E+00  0.00000000E+00
  0.00000000E+00  0.00000000E+00  0.00000000E+00
  0.00000000E+00  0.00000000E+00  0.00000000E+00
  0.00000000E+00  0.00000000E+00  0.00000000E+00
  0.00000000E+00  0.00000000E+00  0.00000000E+00
  0.00000000E+00  0.00000000E+00  0.00000000E+00
  0.00000000E+00  0.00000000E+00  0.00000000E+00
  0.00000000E+00  0.00000000E+00  0.00000000E+00
  0.00000000E+00  0.00000000E+00  0.00000000E+00
  0.00000000E+00  0.00000000E+00  0.00000000E+00
  0.00000000E+00  0.00000000E+00  0.00000000E+00
  0.00000000E+00  0.00000000E+00  0.00000000E+00
  0.00000000E+00  0.00000000E+00  0.00000000E+00
  0.00000000E+00  0.00000000E+00  0.00000000E+00
  0.00000000E+00  0.00000000E+00  0.00000000E+00
  0.00000000E+00  0.00000000E+00  0.00000000E+00
  0.00000000E+00  0.00000000E+00  0.00000000E+00
  0.00000000E+00  0.00000000E+00  0.00000000E+00
  0.00000000E+00  0.00000000E+00  0.00000000E+00
  0.00000000E+00  0.00000000E+00  0.00000000E+00
  0.00000000E+00  0.00000000E+00  0.00000000E+00
  0.00000000E+00  0.00000000E+00  0.00000000E+00
  0.00000000E+00  0.00000000E+00  0.00000000E+00
  0.00000000E+00  0.00000000E+00  0.00000000E+00
  0.00000000E+00  0.00000000E+00  0.00000000E+00
  0.00000000E+00  0.00000000E+00  0.00000000E+00
  0.00000000E+00  0.00000000E+00  0.00000000E+00
  0.00000000E+00  0.00000000E+00  0.00000000E+00
  0.00000000E+00  0.00000000E+00  0.00000000E+00
  0.00000000E+00  0.00000000E+00  0.00000000E+00
  0.00000000E+00  0.00000000E+00  0.00000000E+00
  0.00000000E+00  0.00000000E+00  0.00000000E+00
  0.00000000E+00  0.00000000E+00  0.00000000E+00
  0.00000000E+00  0.00000000E+00  0.00000000E+00
  0.00000000E+00  0.00000000E+00  0.00000000E+00
  0.00000000E+00  0.00000000E+00  0.00000000E+00
  0.00000000E+00  0.00000000E+00  0.00000000E+00
  0.00000000E+00  0.00000000E+00  0.00000000E+00
  0.00000000E+00  0.00000000E+00  0.00000000E+00
  0.00000000E+00  0.00000000E+00  0.00000000E+00
  0.00000000E+00  0.00000000E+00  0.00000000E+00
  0.00000000E+00  0.00000000E+00  0.00000000E+00
  0.00000000E+00  0.00000000E+00  0.00000000E+00
  0.00000000E+00  0.00000000E+00  0.00000000E+00
  0.00000000E+00  0.00000000E+00  0.00000000E+00
  0.00000000E+00  0.00000000E+00  0.00000000E+00
  0.00000000E+00  0.00000000E+00  0.00000000E+00
  0.00000000E+00  0.00000000E+00  0.00000000E+00
  0.00000000E+00  0.00000000E+00  0.00000000E+00
  0.00000000E+00  0.00000000E+00  0.00000000E+00
  0.00000000E+00  0.00000000E+00  0.00000000E+00
  0.00000000E+00  0.00000000E+00  0.00000000E+00
  0.00000000E+00  0.00000000E+00  0.00000000E+00
  0.00000000E+00  0.00000000E+00  0.00000000E+00
  0.00000000E+00  0.00000000E+00  0.00000000E+00
  0.00000000E+00  0.00000000E+00  0.00000000E+00
  0.00000000E+00  0.00000000E+00  0.00000000E+00
  0.00000000E+00  0.00000000E+00  0.00000000E+00
  0.00000000E+00  0.00000000E+00  0.00000000E+00
  0.00000000E+00  0.00000000E+00  0.00000000E+00
  0.00000000E+00  0.00000000E+00  0.00000000E+00
  0.00000000E+00  0.00000000E+00  0.00000000E+00
  0.00000000E+00  0.00000000E+00  0.00000000E+00
  0.00000000E+00  0.00000000E+00  0.00000000E+00
  0.00000000E+00  0.00000000E+00  0.00000000E+00
  0.00000000E+00  0.00000000E+00  0.00000000E+00
  0.00000000E+00  0.00000000E+00  0.00000000E+00
  0.00000000E+00  0.00000000E+00  0.00000000E+00
  0.00000000E+00  0.00000000E+00  0.00000000E+00
  0.00000000E+00  0.00000000E+00  0.00000000E+00
  0.00000000E+00  0.00000000E+00  0.00000000E+00
  0.00000000E+00  0.00000000E+00  0.00000000E+00
  0.00000000E+00  0.00000000E+00  0.00000000E+00
  0.00000000E+00  0.00000000E+00  0.00000000E+00
  0.00000000E+00  0.00000000E+00  0.00000000E+00
  0.00000000E+00  0.00000000E+00  0.00000000E+00
  0.00000000E+00  0.00000000E+00  0.00000000E+00
  0.00000000E+00  0.00000000E+00  0.00000000E+00
  0.00000000E+00  0.00000000E+00  0.00000000E+00
  0.00000000E+00  0.00000000E+00  0.00000000E+00
  0.00000000E+00  0.00000000E+00  0.00000000E+00
