Fe  Fe  H   O   S   Ni  Fe Co           
   1.00000000000000     
     5.6388600000000002    0.0000000000000000    0.0000000000000000
     0.0000000000000000   10.2679500000000008    0.0000000000000000
     0.0000000000000000    0.0000000000000000   41.0286899999999974
   Fe   Fe   H    O    S    Ni   Fe   Co
     6     6    12    24    16    22     1     1
Selective dynamics
Direct
  0.7413996934658897  0.1485409709761312  0.1190456106455612   T   T   T
  0.0282536492620931  0.6234166631709961  0.1426919175420492   T   T   T
  0.4259029579879903  0.1392528679843390  0.1792705699744138   T   T   T
  0.6838732546249295  0.6366776747810520  0.1983733770106106   T   T   T
  0.1003456833894660  0.1269575255274285  0.2347297979617741   T   T   T
  0.3821083286996934  0.6529812093479005  0.2595735715613969   T   T   T
  0.2407357070413442  0.3339191865024813  0.1193862987124533   T   T   T
  0.5263740424480119  0.8596416348008629  0.1428195168720149   T   T   T
  0.9248512941374990  0.3450956628799347  0.1798736788832172   T   T   T
  0.1793182101105416  0.8476312456553884  0.1980320850367357   T   T   T
  0.6021677511748870  0.3528749835162434  0.2382806208616719   T   T   T
  0.8735153373874720  0.8475729784611932  0.2607590794987278   T   T   T
  0.7634094590291487  0.3993817021051079  0.1211969758903590   T   T   T
  0.2610011834030435  0.0831714422507756  0.1211275886630840   T   T   T
  0.9488948632415503  0.9087191912908131  0.1258365543817810   T   T   T
  0.4516226099750862  0.5735590690933341  0.1260502606280631   T   T   T
  0.9494453762487409  0.0841684878491428  0.1784249537180045   T   T   T
  0.4657085348551139  0.4037360537624810  0.1787630077888756   T   T   T
  0.1614301664021765  0.5888772642176325  0.2002162331403438   T   T   T
  0.6535560341633155  0.8944189634418206  0.2003548447861165   T   T   T
  0.1546559471257236  0.4028445765285513  0.2466811374302039   T   T   T
  0.6453483637306813  0.0827912392093980  0.2435665031293771   T   T   T
  0.8467124734871985  0.5951857773441761  0.2555835405039459   T   T   T
  0.3396654455450823  0.9047675795449881  0.2572399247502918   T   T   T
  0.0505364193779389  0.1911868994093432  0.1075800579804110   T   T   T
  0.5496301480327286  0.2904454868680018  0.1076336206780106   T   T   T
  0.7923058841059050  0.9464614494237759  0.1213013767474049   T   T   T
  0.2944303360686956  0.5369862159205079  0.1213086226941266   T   T   T
  0.9078477658367885  0.4356294440532875  0.1327483677602835   T   T   T
  0.4044473852224756  0.0467228016640005  0.1329512520481016   T   T   T
  0.2003530576747047  0.7871679605378686  0.1509584176003496   T   T   T
  0.7030514218861966  0.6978179783075529  0.1508043904049009   T   T   T
  0.7510791361804664  0.1865577374160197  0.1669935517978354   T   T   T
  0.2502855041423485  0.2952200035575157  0.1670578927333638   T   T   T
  0.0248686855064119  0.5503625385016320  0.1874913405316694   T   T   T
  0.5155966590348436  0.9330733848179601  0.1876346073285345   T   T   T
  0.0896025674699186  0.0436420728409249  0.1904981971008365   T   T   T
  0.6056763350130152  0.4409263065369721  0.1905958817499059   T   T   T
  0.8583533244853198  0.7984959727312022  0.2136933655801871   T   T   T
  0.3590664445159052  0.6938808708659104  0.2131351240320731   T   T   T
  0.4270663423602115  0.1738649712257415  0.2273299709251165   T   T   T
  0.9446264831477098  0.2919885633020000  0.2269462289335660   T   T   T
  0.6958939723097752  0.5609850488475667  0.2456201688334199   T   T   T
  0.1875284239528134  0.9353951826228473  0.2464968106633981   T   T   T
  0.3005467321528669  0.4424046461609429  0.2563433376807001   T   T   T
  0.7965609458881439  0.0509827574050535  0.2548088508735397   T   T   T
  0.0511790655289352  0.6825785721843109  0.2718353260445667   T   T   T
  0.5460501512822722  0.8165035508195321  0.2735974141670497   T   T   T
  0.9598372802621895  0.3444739766234292  0.3159592727421718   T   T   T
  0.5378154009686322  0.5951955394263457  0.3199486156496425   T   T   T
  0.0370806785090691  0.8590847949457411  0.3233741349625413   T   T   T
  0.5240024714889432  0.1053755644888772  0.3206877666267067   T   T   T
  0.4211430216056762  0.3612357632346196  0.3825020839245478   T   T   T
  0.0301095678014970  0.5904156832585270  0.3778083600293144   T   T   T
  0.5218012418273608  0.8526160715304830  0.3752656421518192   T   T   T
  0.0206626264717349  0.1117746726869533  0.3716229869562434   T   T   T
  0.0063132856286267  0.3705835233847615  0.4336237503511619   T   T   T
  0.5181070279976586  0.6011500677459169  0.4360254618931601   T   T   T
  0.0251439448423405  0.8570924617863978  0.4281635684423196   T   T   T
  0.5291120517059050  0.1220634211556277  0.4248798338147330   T   T   T
  0.4900635951212584  0.3623645669829453  0.4954527528386658   T   T   T
  0.0141680645515765  0.6148693403276313  0.4881591124804646   T   T   T
  0.5122178532911968  0.8824262104673967  0.4805606189349797   T   T   T
  0.9681480239141694  0.1170862629638932  0.4916616653649999   T   T   T
  0.6545775746322893  0.4109195918517718  0.3438966035774582   T   T   T
  0.7752217039680471  0.9965556435400036  0.4528555903394242   T   T   T
  0.6651854490305762  0.6942908750207790  0.4803802785658917   T   T   T
  0.9148129841750509  0.1812696233797836  0.4177738355502587   T   T   T
  0.4339065738047599  0.8916317227653384  0.3169479243855555   T   T   T
  0.2732541138819188  0.7069992195999293  0.3483574629284235   T   T   T
  0.2708039675853408  0.7349317295400433  0.4585211380868489   T   T   T
  0.0239040016598312  0.3735071548312924  0.3774359722016064   T   T   T
  0.4118723716038025  0.9187838621003002  0.4242419238968786   T   T   T
  0.1418794319516929  0.9087035140483579  0.3751108634810898   T   T   T
  0.2522229478646603  0.2320693693314194  0.3399536362561321   T   T   T
  0.1703872078660917  0.9606888334360402  0.4727351551967330   T   T   T
  0.2923126509338534  0.4398742035936550  0.3042721838522452   T   T   T
  0.7505018418904666  0.4703124682924755  0.4648121664157312   T   T   T
  0.3892187856378365  0.3992369110337938  0.4365824346240846   T   T   T
  0.6942949687910338  0.2316637268199217  0.4666084297211223   T   T   T
  0.7745194543036712  0.9811332263420037  0.3477701229636833   T   T   T
  0.2451533130823410  0.1938007623029938  0.4593096423660638   T   T   T
  0.1285465331211183  0.4078398690430366  0.4860361853811281   T   T   T
  0.6352599328766356  0.1910566700523167  0.3722611101474232   T   T   T
  0.9293113058911084  0.6459849545100003  0.4297314031713153   T   T   T
  0.8152438021724955  0.1784495892802678  0.2899308596698001   T   T   T
  0.6166991327299316  0.6207718354401529  0.3795641021638316   T   T   T
  0.9473502564445252  0.6205853565721132  0.3147695236333743   T   T   T
 
  0.00000000E+00  0.00000000E+00  0.00000000E+00
  0.00000000E+00  0.00000000E+00  0.00000000E+00
  0.00000000E+00  0.00000000E+00  0.00000000E+00
  0.00000000E+00  0.00000000E+00  0.00000000E+00
  0.00000000E+00  0.00000000E+00  0.00000000E+00
  0.00000000E+00  0.00000000E+00  0.00000000E+00
  0.00000000E+00  0.00000000E+00  0.00000000E+00
  0.00000000E+00  0.00000000E+00  0.00000000E+00
  0.00000000E+00  0.00000000E+00  0.00000000E+00
  0.00000000E+00  0.00000000E+00  0.00000000E+00
  0.00000000E+00  0.00000000E+00  0.00000000E+00
  0.00000000E+00  0.00000000E+00  0.00000000E+00
  0.00000000E+00  0.00000000E+00  0.00000000E+00
  0.00000000E+00  0.00000000E+00  0.00000000E+00
  0.00000000E+00  0.00000000E+00  0.00000000E+00
  0.00000000E+00  0.00000000E+00  0.00000000E+00
  0.00000000E+00  0.00000000E+00  0.00000000E+00
  0.00000000E+00  0.00000000E+00  0.00000000E+00
  0.00000000E+00  0.00000000E+00  0.00000000E+00
  0.00000000E+00  0.00000000E+00  0.00000000E+00
  0.00000000E+00  0.00000000E+00  0.00000000E+00
  0.00000000E+00  0.00000000E+00  0.00000000E+00
  0.00000000E+00  0.00000000E+00  0.00000000E+00
  0.00000000E+00  0.00000000E+00  0.00000000E+00
  0.00000000E+00  0.00000000E+00  0.00000000E+00
  0.00000000E+00  0.00000000E+00  0.00000000E+00
  0.00000000E+00  0.00000000E+00  0.00000000E+00
  0.00000000E+00  0.00000000E+00  0.00000000E+00
  0.00000000E+00  0.00000000E+00  0.00000000E+00
  0.00000000E+00  0.00000000E+00  0.00000000E+00
  0.00000000E+00  0.00000000E+00  0.00000000E+00
  0.00000000E+00  0.00000000E+00  0.00000000E+00
  0.00000000E+00  0.00000000E+00  0.00000000E+00
  0.00000000E+00  0.00000000E+00  0.00000000E+00
  0.00000000E+00  0.00000000E+00  0.00000000E+00
  0.00000000E+00  0.00000000E+00  0.00000000E+00
  0.00000000E+00  0.00000000E+00  0.00000000E+00
  0.00000000E+00  0.00000000E+00  0.00000000E+00
  0.00000000E+00  0.00000000E+00  0.00000000E+00
  0.00000000E+00  0.00000000E+00  0.00000000E+00
  0.00000000E+00  0.00000000E+00  0.00000000E+00
  0.00000000E+00  0.00000000E+00  0.00000000E+00
  0.00000000E+00  0.00000000E+00  0.00000000E+00
  0.00000000E+00  0.00000000E+00  0.00000000E+00
  0.00000000E+00  0.00000000E+00  0.00000000E+00
  0.00000000E+00  0.00000000E+00  0.00000000E+00
  0.00000000E+00  0.00000000E+00  0.00000000E+00
  0.00000000E+00  0.00000000E+00  0.00000000E+00
  0.00000000E+00  0.00000000E+00  0.00000000E+00
  0.00000000E+00  0.00000000E+00  0.00000000E+00
  0.00000000E+00  0.00000000E+00  0.00000000E+00
  0.00000000E+00  0.00000000E+00  0.00000000E+00
  0.00000000E+00  0.00000000E+00  0.00000000E+00
  0.00000000E+00  0.00000000E+00  0.00000000E+00
  0.00000000E+00  0.00000000E+00  0.00000000E+00
  0.00000000E+00  0.00000000E+00  0.00000000E+00
  0.00000000E+00  0.00000000E+00  0.00000000E+00
  0.00000000E+00  0.00000000E+00  0.00000000E+00
  0.00000000E+00  0.00000000E+00  0.00000000E+00
  0.00000000E+00  0.00000000E+00  0.00000000E+00
  0.00000000E+00  0.00000000E+00  0.00000000E+00
  0.00000000E+00  0.00000000E+00  0.00000000E+00
  0.00000000E+00  0.00000000E+00  0.00000000E+00
  0.00000000E+00  0.00000000E+00  0.00000000E+00
  0.00000000E+00  0.00000000E+00  0.00000000E+00
  0.00000000E+00  0.00000000E+00  0.00000000E+00
  0.00000000E+00  0.00000000E+00  0.00000000E+00
  0.00000000E+00  0.00000000E+00  0.00000000E+00
  0.00000000E+00  0.00000000E+00  0.00000000E+00
  0.00000000E+00  0.00000000E+00  0.00000000E+00
  0.00000000E+00  0.00000000E+00  0.00000000E+00
  0.00000000E+00  0.00000000E+00  0.00000000E+00
  0.00000000E+00  0.00000000E+00  0.00000000E+00
  0.00000000E+00  0.00000000E+00  0.00000000E+00
  0.00000000E+00  0.00000000E+00  0.00000000E+00
  0.00000000E+00  0.00000000E+00  0.00000000E+00
  0.00000000E+00  0.00000000E+00  0.00000000E+00
  0.00000000E+00  0.00000000E+00  0.00000000E+00
  0.00000000E+00  0.00000000E+00  0.00000000E+00
  0.00000000E+00  0.00000000E+00  0.00000000E+00
  0.00000000E+00  0.00000000E+00  0.00000000E+00
  0.00000000E+00  0.00000000E+00  0.00000000E+00
  0.00000000E+00  0.00000000E+00  0.00000000E+00
  0.00000000E+00  0.00000000E+00  0.00000000E+00
  0.00000000E+00  0.00000000E+00  0.00000000E+00
  0.00000000E+00  0.00000000E+00  0.00000000E+00
  0.00000000E+00  0.00000000E+00  0.00000000E+00
  0.00000000E+00  0.00000000E+00  0.00000000E+00
