Fe  Fe  H   O   S   Ni  Fe Co           
   1.00000000000000     
     5.6388600000000002    0.0000000000000000    0.0000000000000000
     0.0000000000000000   10.2679500000000008    0.0000000000000000
     0.0000000000000000    0.0000000000000000   41.0286899999999974
   Fe   Fe   H    O    S    Ni   Fe   Co
     6     6    12    24    16    22     1     1
Selective dynamics
Direct
  0.7546344745310714  0.1525150293059822  0.1199284198490305   T   T   T
  0.0383373415002883  0.6264384345317275  0.1430677568374865   T   T   T
  0.4437438049093433  0.1427760221299582  0.1801653249410472   T   T   T
  0.6965582809097320  0.6382494651611389  0.1986252128073172   T   T   T
  0.1226752057790583  0.1300273405504297  0.2354931723726666   T   T   T
  0.4083059304167913  0.6508979604165075  0.2606973906484510   T   T   T
  0.2542684549044555  0.3378707403585673  0.1203330000505492   T   T   T
  0.5370719224954942  0.8626454818363340  0.1431580105876463   T   T   T
  0.9424625816682819  0.3487574527217133  0.1811691269556276   T   T   T
  0.1952633700277998  0.8486081315659402  0.1984473488575610   T   T   T
  0.6296790409779638  0.3538673679250809  0.2403323735773709   T   T   T
  0.8932922813132649  0.8516096557060088  0.2605579536171739   T   T   T
  0.7751108234800644  0.4020077945791655  0.1223166976694558   T   T   T
  0.2731200570127806  0.0886753822693211  0.1222930264803814   T   T   T
  0.9568200014853070  0.9125875765851961  0.1252998794328751   T   T   T
  0.4594355851281340  0.5778384741398305  0.1255994963021221   T   T   T
  0.9665338888823457  0.0899045212543090  0.1794286254707259   T   T   T
  0.4801613562393991  0.4042188694835528  0.1805611536685490   T   T   T
  0.1767773799198250  0.5928300118867329  0.2006262840033646   T   T   T
  0.6704789516193418  0.8953902961925226  0.2003755244991069   T   T   T
  0.1923520363075737  0.4044967656961533  0.2532101298299015   T   T   T
  0.6701114820556476  0.0877476973856494  0.2450121847343461   T   T   T
  0.8742111639285147  0.5994351843984792  0.2546286889318607   T   T   T
  0.3608355989599008  0.9050800943101338  0.2564961291243297   T   T   T
  0.0650609200340326  0.1943145089641373  0.1087324061115416   T   T   T
  0.5640417078422015  0.2950365865440250  0.1085874211141284   T   T   T
  0.7996827278751693  0.9500277902900618  0.1210143976042841   T   T   T
  0.3024131759405773  0.5406576207374506  0.1210336179449503   T   T   T
  0.9199690635864588  0.4384207267067203  0.1337806487284352   T   T   T
  0.4173383253281087  0.0514024852642385  0.1339593547860129   T   T   T
  0.2107101027479561  0.7903490890424301  0.1513879356151705   T   T   T
  0.7127331735871049  0.6995926328430702  0.1510249403658943   T   T   T
  0.7684250084230182  0.1901214469799611  0.1679712739290469   T   T   T
  0.2671503522460892  0.2995551855997873  0.1680889063693359   T   T   T
  0.0398679137997422  0.5537052313273302  0.1879225686508565   T   T   T
  0.5312361164192355  0.9348443886105052  0.1879976134142322   T   T   T
  0.1066151438663669  0.0487836615102510  0.1914673914481156   T   T   T
  0.6196465395312822  0.4419441584185876  0.1924946339177304   T   T   T
  0.8743092702767279  0.7999322407683528  0.2133695665833346   T   T   T
  0.3760355615503339  0.6924565084716151  0.2137388278284468   T   T   T
  0.4505451129301505  0.1763312615088447  0.2285270314308269   T   T   T
  0.9681826618338716  0.2943315439320466  0.2279666132592732   T   T   T
  0.7176734411405287  0.5636101187232694  0.2466792784581091   T   T   T
  0.2082141969554033  0.9366588935740796  0.2461180381310059   T   T   T
  0.3402195279859573  0.4402570202225302  0.2628192323375789   T   T   T
  0.8205342530563852  0.0551057083110744  0.2564022997759638   T   T   T
  0.0765261991794131  0.6822311764496748  0.2706080145120521   T   T   T
  0.5680986881918798  0.8181229661816353  0.2732483818625245   T   T   T
  0.9707429410603520  0.3423184205123761  0.3174867185334559   T   T   T
  0.5112924678699092  0.6055645736619472  0.3225365008773996   T   T   T
  0.0328025796086501  0.8685517093602041  0.3223257924949600   T   T   T
  0.5162299413159536  0.1062349901466338  0.3211304251077124   T   T   T
  0.4644110365551387  0.3511441039866306  0.3749574909141430   T   T   T
  0.9982573978101573  0.5949552190761400  0.3742503136390168   T   T   T
  0.5019927261672479  0.8593367606168533  0.3772853080686190   T   T   T
  0.9746170772924986  0.1174715038853017  0.3772236795375067   T   T   T
  0.9762401278359035  0.3577657101746767  0.4298634356422122   T   T   T
  0.5086219430607452  0.6073978250215230  0.4256351307861496   T   T   T
  0.9693171858470084  0.8615240980957772  0.4238303401982625   T   T   T
  0.4716818427415481  0.1023144717926710  0.4283369942213372   T   T   T
  0.4696169656322352  0.3594058861080014  0.4823298919979009   T   T   T
  0.9608723844242418  0.6200941999512120  0.4898999728064979   T   T   T
  0.4274421422597892  0.8658574739465639  0.4852806315521873   T   T   T
  0.9589724038412446  0.0944121464365524  0.4805096084642965   T   T   T
  0.7269591320687036  0.4553480055721825  0.3467181066966072   T   T   T
  0.2577054615704797  0.7224207571758020  0.3500089950898420   T   T   T
  0.3418274374213733  0.4130185369739552  0.3118897847692365   T   T   T
  0.7295494489216540  0.4827256879920073  0.4567857585205041   T   T   T
  0.3421049104666319  0.8989437948237152  0.4276140984423951   T   T   T
  0.4316237929508833  0.8925944712318507  0.3147107158207014   T   T   T
  0.8962238013207383  0.6583032024398250  0.4231348762474731   T   T   T
  0.6659933315516190  0.7191790087354254  0.4704232728398601   T   T   T
  0.0845901661376313  0.3915547469164073  0.3774539122108922   T   T   T
  0.2240521864437804  0.2238606730611860  0.4557167369425708   T   T   T
  0.2235479716932209  0.2134010849859755  0.3435173204115415   T   T   T
  0.8273270434209387  0.1726039602438115  0.2941536893372706   T   T   T
  0.7622104263118240  0.9754034482259887  0.3481210328866297   T   T   T
  0.3720030747494160  0.4115084710965257  0.4247611417268344   T   T   T
  0.1357639091425092  0.4481622126517349  0.4742850815606078   T   T   T
  0.1331096645697575  0.9233634945985574  0.3755154513750472   T   T   T
  0.6027855884498663  0.1678261235596469  0.4783857909958275   T   T   T
  0.2433674691671111  0.6856074717793584  0.4576127750563975   T   T   T
  0.5858319138439073  0.1551787437796460  0.3757183040114127   T   T   T
  0.6982475426324614  0.9568613877819769  0.4540186975329717   T   T   T
  0.0573224023399786  0.8849221756335799  0.4773249129426984   T   T   T
  0.6260823865829723  0.6580803598302375  0.3749956677402941   T   T   T
  0.9473190930007661  0.6303913205598928  0.3124119611448697   T   T   T
  0.8529164831387636  0.1564560662055139  0.4278723754280587   T   T   T
 
  0.00000000E+00  0.00000000E+00  0.00000000E+00
  0.00000000E+00  0.00000000E+00  0.00000000E+00
  0.00000000E+00  0.00000000E+00  0.00000000E+00
  0.00000000E+00  0.00000000E+00  0.00000000E+00
  0.00000000E+00  0.00000000E+00  0.00000000E+00
  0.00000000E+00  0.00000000E+00  0.00000000E+00
  0.00000000E+00  0.00000000E+00  0.00000000E+00
  0.00000000E+00  0.00000000E+00  0.00000000E+00
  0.00000000E+00  0.00000000E+00  0.00000000E+00
  0.00000000E+00  0.00000000E+00  0.00000000E+00
  0.00000000E+00  0.00000000E+00  0.00000000E+00
  0.00000000E+00  0.00000000E+00  0.00000000E+00
  0.00000000E+00  0.00000000E+00  0.00000000E+00
  0.00000000E+00  0.00000000E+00  0.00000000E+00
  0.00000000E+00  0.00000000E+00  0.00000000E+00
  0.00000000E+00  0.00000000E+00  0.00000000E+00
  0.00000000E+00  0.00000000E+00  0.00000000E+00
  0.00000000E+00  0.00000000E+00  0.00000000E+00
  0.00000000E+00  0.00000000E+00  0.00000000E+00
  0.00000000E+00  0.00000000E+00  0.00000000E+00
  0.00000000E+00  0.00000000E+00  0.00000000E+00
  0.00000000E+00  0.00000000E+00  0.00000000E+00
  0.00000000E+00  0.00000000E+00  0.00000000E+00
  0.00000000E+00  0.00000000E+00  0.00000000E+00
  0.00000000E+00  0.00000000E+00  0.00000000E+00
  0.00000000E+00  0.00000000E+00  0.00000000E+00
  0.00000000E+00  0.00000000E+00  0.00000000E+00
  0.00000000E+00  0.00000000E+00  0.00000000E+00
  0.00000000E+00  0.00000000E+00  0.00000000E+00
  0.00000000E+00  0.00000000E+00  0.00000000E+00
  0.00000000E+00  0.00000000E+00  0.00000000E+00
  0.00000000E+00  0.00000000E+00  0.00000000E+00
  0.00000000E+00  0.00000000E+00  0.00000000E+00
  0.00000000E+00  0.00000000E+00  0.00000000E+00
  0.00000000E+00  0.00000000E+00  0.00000000E+00
  0.00000000E+00  0.00000000E+00  0.00000000E+00
  0.00000000E+00  0.00000000E+00  0.00000000E+00
  0.00000000E+00  0.00000000E+00  0.00000000E+00
  0.00000000E+00  0.00000000E+00  0.00000000E+00
  0.00000000E+00  0.00000000E+00  0.00000000E+00
  0.00000000E+00  0.00000000E+00  0.00000000E+00
  0.00000000E+00  0.00000000E+00  0.00000000E+00
  0.00000000E+00  0.00000000E+00  0.00000000E+00
  0.00000000E+00  0.00000000E+00  0.00000000E+00
  0.00000000E+00  0.00000000E+00  0.00000000E+00
  0.00000000E+00  0.00000000E+00  0.00000000E+00
  0.00000000E+00  0.00000000E+00  0.00000000E+00
  0.00000000E+00  0.00000000E+00  0.00000000E+00
  0.00000000E+00  0.00000000E+00  0.00000000E+00
  0.00000000E+00  0.00000000E+00  0.00000000E+00
  0.00000000E+00  0.00000000E+00  0.00000000E+00
  0.00000000E+00  0.00000000E+00  0.00000000E+00
  0.00000000E+00  0.00000000E+00  0.00000000E+00
  0.00000000E+00  0.00000000E+00  0.00000000E+00
  0.00000000E+00  0.00000000E+00  0.00000000E+00
  0.00000000E+00  0.00000000E+00  0.00000000E+00
  0.00000000E+00  0.00000000E+00  0.00000000E+00
  0.00000000E+00  0.00000000E+00  0.00000000E+00
  0.00000000E+00  0.00000000E+00  0.00000000E+00
  0.00000000E+00  0.00000000E+00  0.00000000E+00
  0.00000000E+00  0.00000000E+00  0.00000000E+00
  0.00000000E+00  0.00000000E+00  0.00000000E+00
  0.00000000E+00  0.00000000E+00  0.00000000E+00
  0.00000000E+00  0.00000000E+00  0.00000000E+00
  0.00000000E+00  0.00000000E+00  0.00000000E+00
  0.00000000E+00  0.00000000E+00  0.00000000E+00
  0.00000000E+00  0.00000000E+00  0.00000000E+00
  0.00000000E+00  0.00000000E+00  0.00000000E+00
  0.00000000E+00  0.00000000E+00  0.00000000E+00
  0.00000000E+00  0.00000000E+00  0.00000000E+00
  0.00000000E+00  0.00000000E+00  0.00000000E+00
  0.00000000E+00  0.00000000E+00  0.00000000E+00
  0.00000000E+00  0.00000000E+00  0.00000000E+00
  0.00000000E+00  0.00000000E+00  0.00000000E+00
  0.00000000E+00  0.00000000E+00  0.00000000E+00
  0.00000000E+00  0.00000000E+00  0.00000000E+00
  0.00000000E+00  0.00000000E+00  0.00000000E+00
  0.00000000E+00  0.00000000E+00  0.00000000E+00
  0.00000000E+00  0.00000000E+00  0.00000000E+00
  0.00000000E+00  0.00000000E+00  0.00000000E+00
  0.00000000E+00  0.00000000E+00  0.00000000E+00
  0.00000000E+00  0.00000000E+00  0.00000000E+00
  0.00000000E+00  0.00000000E+00  0.00000000E+00
  0.00000000E+00  0.00000000E+00  0.00000000E+00
  0.00000000E+00  0.00000000E+00  0.00000000E+00
  0.00000000E+00  0.00000000E+00  0.00000000E+00
  0.00000000E+00  0.00000000E+00  0.00000000E+00
  0.00000000E+00  0.00000000E+00  0.00000000E+00
