Fe  Fe  H   O   S   Ni  Fe Co           
   1.00000000000000     
     5.6388600000000002    0.0000000000000000    0.0000000000000000
     0.0000000000000000   10.2679500000000008    0.0000000000000000
     0.0000000000000000    0.0000000000000000   41.0286899999999974
   Fe   Fe   H    O    S    Ni   Fe   Co
     6     6    12    24    16    22     1     1
Selective dynamics
Direct
  0.7514455868354971  0.1455847237291082  0.1199664485071393   T   T   T
  0.0305020526350733  0.6183809427608907  0.1433626613160617   T   T   T
  0.4388410556031832  0.1358141546580937  0.1801361406216984   T   T   T
  0.6892965024760199  0.6302058595344009  0.1996053783597414   T   T   T
  0.1154000258670853  0.1246199538892925  0.2351330816972485   T   T   T
  0.3870198001184143  0.6408003195811836  0.2612669093351662   T   T   T
  0.2498977483671513  0.3310829807669448  0.1205915209880671   T   T   T
  0.5348246541198276  0.8549314560833401  0.1428485252070918   T   T   T
  0.9357384042385172  0.3422269483306880  0.1815072049408248   T   T   T
  0.1906068476865799  0.8414279423048144  0.1974055905992582   T   T   T
  0.6182513408683284  0.3491937901038525  0.2407729370611749   T   T   T
  0.8938955781774236  0.8425351890687721  0.2590548414952625   T   T   T
  0.7699157532871924  0.3939777804614860  0.1225364183093555   T   T   T
  0.2716335296082148  0.0814927046448435  0.1219004531833304   T   T   T
  0.9555302920060451  0.9049062659826738  0.1255588714827265   T   T   T
  0.4541349982573553  0.5711469355595601  0.1262627822287332   T   T   T
  0.9620429093178353  0.0834672912000424  0.1789877266315602   T   T   T
  0.4724207857532681  0.3976553117958180  0.1808310566204530   T   T   T
  0.1689768101426184  0.5861193818854381  0.2007814838392630   T   T   T
  0.6643617480823787  0.8889653054282861  0.2000426220947232   T   T   T
  0.1792700551112330  0.3997381408816260  0.2555590520408349   T   T   T
  0.6669462466691739  0.0823609129439740  0.2455998664427779   T   T   T
  0.8543643709810523  0.5929582201321876  0.2579074198401192   T   T   T
  0.3609924567213671  0.8977638321451237  0.2537455697183691   T   T   T
  0.0611842063116515  0.1880452551628957  0.1085166099216416   T   T   T
  0.5605285995891469  0.2884887599420989  0.1090096965485957   T   T   T
  0.7986788494558869  0.9427138552289750  0.1212047943330563   T   T   T
  0.2976187035742823  0.5334802445608751  0.1215606457861773   T   T   T
  0.9150567130281629  0.4307621126172140  0.1340230469880661   T   T   T
  0.4150016217831659  0.0444061402806680  0.1336580321628910   T   T   T
  0.2053588896289134  0.7831784637279664  0.1509738163213911   T   T   T
  0.7062311280370389  0.6921046252366251  0.1513056615690395   T   T   T
  0.7638942789610756  0.1826329339548287  0.1680545153401525   T   T   T
  0.2614333997137919  0.2920894420027458  0.1682990742492882   T   T   T
  0.0307467367273324  0.5462528656431895  0.1883135691309584   T   T   T
  0.5257162642991910  0.9281404085360061  0.1876247434369699   T   T   T
  0.1019240500055568  0.0418356930831219  0.1910296987485178   T   T   T
  0.6121608074958960  0.4355366484301121  0.1927025363112735   T   T   T
  0.8700335833047222  0.7932453704321888  0.2129684354958724   T   T   T
  0.3655528566699105  0.6855524592300853  0.2135753426261538   T   T   T
  0.4430043913735006  0.1707906326278183  0.2285412372555040   T   T   T
  0.9572976470729101  0.2878821532712575  0.2282374218740993   T   T   T
  0.7074443511860729  0.5576065276540898  0.2470480086179895   T   T   T
  0.2020628237573781  0.9324313620356790  0.2458717373409723   T   T   T
  0.3293977100513267  0.4365843619071784  0.2640518202388314   T   T   T
  0.8165437563027641  0.0505099347343425  0.2571408124247088   T   T   T
  0.0602662224292595  0.6850774900603953  0.2731561811290711   T   T   T
  0.5631465660414486  0.8160000251090466  0.2699743884202018   T   T   T
  0.9738763423761212  0.3451992491696644  0.3175582278863333   T   T   T
  0.5216961206976578  0.6137737454781077  0.3207995088092614   T   T   T
  0.0316584033085564  0.8740478197652410  0.3247704241882346   T   T   T
  0.5271432431050762  0.1190884754174889  0.3224066607976276   T   T   T
  0.4743540946555549  0.3676336965880903  0.3725321215131740   T   T   T
  0.9931120928196525  0.6056931072390429  0.3736734501567511   T   T   T
  0.5070621764223134  0.8645998107306151  0.3765542679525918   T   T   T
  0.9923354513353234  0.1210396529666467  0.3775582599149649   T   T   T
  0.9948489277669487  0.3638765700569898  0.4279910647652491   T   T   T
  0.4970502832531024  0.6074197553816496  0.4260750350155077   T   T   T
  0.9971478816619164  0.8593453020005206  0.4261122122300943   T   T   T
  0.4890314066905446  0.1147484220488985  0.4273305255869805   T   T   T
  0.4709337599473524  0.3645658794548464  0.4839127248294198   T   T   T
  0.9657637523567336  0.6205387195446277  0.4838498537358933   T   T   T
  0.4683590499377621  0.8662422823225087  0.4814080510144365   T   T   T
  0.9684296590867270  0.1119454153133417  0.4826399404468728   T   T   T
  0.7347793218137350  0.9730013886587620  0.4533999985514283   T   T   T
  0.6150251787855155  0.6797603521354850  0.4756628810091937   T   T   T
  0.7657258281667442  0.9859614836100308  0.3503068076298187   T   T   T
  0.8746326652636689  0.6606886183798065  0.4252381011692861   T   T   T
  0.1122387495449192  0.9240022599911516  0.4764524482837749   T   T   T
  0.1314480566873895  0.4411734197213505  0.4750921205291856   T   T   T
  0.0984851457854717  0.4073551031749186  0.3771003060519941   T   T   T
  0.6289984014473330  0.6658807590917610  0.3765606264258616   T   T   T
  0.6164881269073370  0.1780262302954927  0.4771045809854891   T   T   T
  0.2273740505982064  0.2217701655450926  0.3443818435772646   T   T   T
  0.3778817507749228  0.4104016301422391  0.4242447631833224   T   T   T
  0.3447456287495753  0.4203725170749351  0.3142067351653386   T   T   T
  0.2683968930800094  0.7266838579754469  0.3498279796727166   T   T   T
  0.8340517281527040  0.1776248273494309  0.2930401679710481   T   T   T
  0.2319457311018077  0.7171473341620704  0.4533886745556043   T   T   T
  0.8653080686738104  0.1690383999263541  0.4265552783710286   T   T   T
  0.3718469403022581  0.9151475229035844  0.4262309341782930   T   T   T
  0.1350884655817176  0.9258797707763466  0.3768864540333788   T   T   T
  0.2305224435258983  0.2252062759816867  0.4552694508035081   T   T   T
  0.6087364551608885  0.1741534570487707  0.3757326264245336   T   T   T
  0.9156251545323049  0.6680926157089224  0.3177455389725564   T   T   T
  0.7318282992976078  0.4713679487653245  0.4548959914606914   T   T   T
  0.4559500026883269  0.8927695929919879  0.3104382720512857   T   T   T
  0.7425265582252747  0.4703654557689141  0.3456547012676001   T   T   T
 
  0.00000000E+00  0.00000000E+00  0.00000000E+00
  0.00000000E+00  0.00000000E+00  0.00000000E+00
  0.00000000E+00  0.00000000E+00  0.00000000E+00
  0.00000000E+00  0.00000000E+00  0.00000000E+00
  0.00000000E+00  0.00000000E+00  0.00000000E+00
  0.00000000E+00  0.00000000E+00  0.00000000E+00
  0.00000000E+00  0.00000000E+00  0.00000000E+00
  0.00000000E+00  0.00000000E+00  0.00000000E+00
  0.00000000E+00  0.00000000E+00  0.00000000E+00
  0.00000000E+00  0.00000000E+00  0.00000000E+00
  0.00000000E+00  0.00000000E+00  0.00000000E+00
  0.00000000E+00  0.00000000E+00  0.00000000E+00
  0.00000000E+00  0.00000000E+00  0.00000000E+00
  0.00000000E+00  0.00000000E+00  0.00000000E+00
  0.00000000E+00  0.00000000E+00  0.00000000E+00
  0.00000000E+00  0.00000000E+00  0.00000000E+00
  0.00000000E+00  0.00000000E+00  0.00000000E+00
  0.00000000E+00  0.00000000E+00  0.00000000E+00
  0.00000000E+00  0.00000000E+00  0.00000000E+00
  0.00000000E+00  0.00000000E+00  0.00000000E+00
  0.00000000E+00  0.00000000E+00  0.00000000E+00
  0.00000000E+00  0.00000000E+00  0.00000000E+00
  0.00000000E+00  0.00000000E+00  0.00000000E+00
  0.00000000E+00  0.00000000E+00  0.00000000E+00
  0.00000000E+00  0.00000000E+00  0.00000000E+00
  0.00000000E+00  0.00000000E+00  0.00000000E+00
  0.00000000E+00  0.00000000E+00  0.00000000E+00
  0.00000000E+00  0.00000000E+00  0.00000000E+00
  0.00000000E+00  0.00000000E+00  0.00000000E+00
  0.00000000E+00  0.00000000E+00  0.00000000E+00
  0.00000000E+00  0.00000000E+00  0.00000000E+00
  0.00000000E+00  0.00000000E+00  0.00000000E+00
  0.00000000E+00  0.00000000E+00  0.00000000E+00
  0.00000000E+00  0.00000000E+00  0.00000000E+00
  0.00000000E+00  0.00000000E+00  0.00000000E+00
  0.00000000E+00  0.00000000E+00  0.00000000E+00
  0.00000000E+00  0.00000000E+00  0.00000000E+00
  0.00000000E+00  0.00000000E+00  0.00000000E+00
  0.00000000E+00  0.00000000E+00  0.00000000E+00
  0.00000000E+00  0.00000000E+00  0.00000000E+00
  0.00000000E+00  0.00000000E+00  0.00000000E+00
  0.00000000E+00  0.00000000E+00  0.00000000E+00
  0.00000000E+00  0.00000000E+00  0.00000000E+00
  0.00000000E+00  0.00000000E+00  0.00000000E+00
  0.00000000E+00  0.00000000E+00  0.00000000E+00
  0.00000000E+00  0.00000000E+00  0.00000000E+00
  0.00000000E+00  0.00000000E+00  0.00000000E+00
  0.00000000E+00  0.00000000E+00  0.00000000E+00
  0.00000000E+00  0.00000000E+00  0.00000000E+00
  0.00000000E+00  0.00000000E+00  0.00000000E+00
  0.00000000E+00  0.00000000E+00  0.00000000E+00
  0.00000000E+00  0.00000000E+00  0.00000000E+00
  0.00000000E+00  0.00000000E+00  0.00000000E+00
  0.00000000E+00  0.00000000E+00  0.00000000E+00
  0.00000000E+00  0.00000000E+00  0.00000000E+00
  0.00000000E+00  0.00000000E+00  0.00000000E+00
  0.00000000E+00  0.00000000E+00  0.00000000E+00
  0.00000000E+00  0.00000000E+00  0.00000000E+00
  0.00000000E+00  0.00000000E+00  0.00000000E+00
  0.00000000E+00  0.00000000E+00  0.00000000E+00
  0.00000000E+00  0.00000000E+00  0.00000000E+00
  0.00000000E+00  0.00000000E+00  0.00000000E+00
  0.00000000E+00  0.00000000E+00  0.00000000E+00
  0.00000000E+00  0.00000000E+00  0.00000000E+00
  0.00000000E+00  0.00000000E+00  0.00000000E+00
  0.00000000E+00  0.00000000E+00  0.00000000E+00
  0.00000000E+00  0.00000000E+00  0.00000000E+00
  0.00000000E+00  0.00000000E+00  0.00000000E+00
  0.00000000E+00  0.00000000E+00  0.00000000E+00
  0.00000000E+00  0.00000000E+00  0.00000000E+00
  0.00000000E+00  0.00000000E+00  0.00000000E+00
  0.00000000E+00  0.00000000E+00  0.00000000E+00
  0.00000000E+00  0.00000000E+00  0.00000000E+00
  0.00000000E+00  0.00000000E+00  0.00000000E+00
  0.00000000E+00  0.00000000E+00  0.00000000E+00
  0.00000000E+00  0.00000000E+00  0.00000000E+00
  0.00000000E+00  0.00000000E+00  0.00000000E+00
  0.00000000E+00  0.00000000E+00  0.00000000E+00
  0.00000000E+00  0.00000000E+00  0.00000000E+00
  0.00000000E+00  0.00000000E+00  0.00000000E+00
  0.00000000E+00  0.00000000E+00  0.00000000E+00
  0.00000000E+00  0.00000000E+00  0.00000000E+00
  0.00000000E+00  0.00000000E+00  0.00000000E+00
  0.00000000E+00  0.00000000E+00  0.00000000E+00
  0.00000000E+00  0.00000000E+00  0.00000000E+00
  0.00000000E+00  0.00000000E+00  0.00000000E+00
  0.00000000E+00  0.00000000E+00  0.00000000E+00
  0.00000000E+00  0.00000000E+00  0.00000000E+00
