Fe  Fe  H   O   S   Ni  Fe Co           
   1.00000000000000     
     5.6388600000000002    0.0000000000000000    0.0000000000000000
     0.0000000000000000   10.2679500000000008    0.0000000000000000
     0.0000000000000000    0.0000000000000000   41.0286899999999974
   Fe   Fe   H    O    S    Ni   Fe   Co
     6     6    12    24    16    22     1     1
Selective dynamics
Direct
  0.7568471834162613  0.1481068819537769  0.1189249706776363   T   T   T
  0.0385142843684152  0.6217221691076690  0.1426322391926301   T   T   T
  0.4461729406357157  0.1387528005494507  0.1792677059576002   T   T   T
  0.6961198214959006  0.6346435349815827  0.1986139640174110   T   T   T
  0.1262862097867073  0.1285005942367984  0.2342472899705235   T   T   T
  0.3998226914518210  0.6479196845320319  0.2607530584637362   T   T   T
  0.2564385802886432  0.3337446727161403  0.1194474549692464   T   T   T
  0.5389475184912274  0.8581588437762715  0.1425444739668010   T   T   T
  0.9432183359767674  0.3448227971611506  0.1802478735966965   T   T   T
  0.1953773709167005  0.8450474154216615  0.1976687603159167   T   T   T
  0.6292177014065453  0.3554131472464723  0.2393211515834758   T   T   T
  0.8963956005493505  0.8425639450468714  0.2596505993808457   T   T   T
  0.7760106272597342  0.3973668352440319  0.1215037554615788   T   T   T
  0.2749679846626169  0.0844324011106214  0.1214334146202493   T   T   T
  0.9604649354398126  0.9075983383194426  0.1250254302334581   T   T   T
  0.4614538796024972  0.5734555886377920  0.1255141930946847   T   T   T
  0.9668719746389455  0.0872833737086043  0.1785200195699467   T   T   T
  0.4789255342877171  0.4017156139851646  0.1795910001836406   T   T   T
  0.1765306495371336  0.5888997238090623  0.2001137842886695   T   T   T
  0.6678758998445421  0.8927193950863594  0.1999705685627027   T   T   T
  0.1934532494856607  0.4053487528013199  0.2550789995007823   T   T   T
  0.6796569419265224  0.0912461995842551  0.2473126542169409   T   T   T
  0.8681787077467770  0.5958663665192671  0.2562620094501897   T   T   T
  0.3620310701271045  0.9022101754657156  0.2550699295310251   T   T   T
  0.0671085679054892  0.1902394229359388  0.1077568125927093   T   T   T
  0.5665008657006887  0.2913433454704556  0.1078225237466870   T   T   T
  0.8036326387466060  0.9455142895890126  0.1207234349657246   T   T   T
  0.3048536225154011  0.5360656910415251  0.1207341301055207   T   T   T
  0.9210660770161816  0.4340034172019246  0.1329804732903796   T   T   T
  0.4189435456161550  0.0472492596721783  0.1331452306352636   T   T   T
  0.2109906243051314  0.7861643927994191  0.1506974874545091   T   T   T
  0.7123841357600815  0.6952875784255003  0.1507019406713634   T   T   T
  0.7692900623737073  0.1853171220270551  0.1668713340546839   T   T   T
  0.2689486094818444  0.2946678437925319  0.1670891010565495   T   T   T
  0.0394052716361346  0.5491384170961648  0.1874603598913304   T   T   T
  0.5292066580530710  0.9315117147903056  0.1873868114095538   T   T   T
  0.1062993658394270  0.0459596210119278  0.1907802889719839   T   T   T
  0.6185372737114603  0.4394343160636064  0.1914838169276336   T   T   T
  0.8729518489034644  0.7976866985080493  0.2128768650393320   T   T   T
  0.3717855896248551  0.6889992421187812  0.2132451765893751   T   T   T
  0.4532815198042479  0.1746809240172676  0.2281188522026844   T   T   T
  0.9652390569695457  0.2895350032942987  0.2265198854149270   T   T   T
  0.7176328474210786  0.5620684293169569  0.2459073119900572   T   T   T
  0.2052797734318580  0.9341967893031458  0.2454854415332477   T   T   T
  0.3442561775456391  0.4400937357394171  0.2637518797725335   T   T   T
  0.8303771766745708  0.0578054536827257  0.2583991588432242   T   T   T
  0.0697695043949777  0.6834453805881877  0.2722386801706870   T   T   T
  0.5659094542841757  0.8187962045409737  0.2706112110824027   T   T   T
  0.9507754616269941  0.3553931062413775  0.3098749455447963   T   T   T
  0.5226034293313380  0.6195193810417261  0.3221392764759339   T   T   T
  0.0179226547697676  0.8557440708293856  0.3252373311752813   T   T   T
  0.4485829989938668  0.0854273132081929  0.3181027162931109   T   T   T
  0.4483433413093104  0.3561397768541419  0.3683772629742827   T   T   T
  0.9881621197838347  0.5945097027785938  0.3779776705406461   T   T   T
  0.4922121324643906  0.8510569247595827  0.3796598997225877   T   T   T
  0.9445912174679532  0.1162684191300462  0.3722806893902242   T   T   T
  0.0411071765066297  0.3547598038138018  0.4317229357521645   T   T   T
  0.5029970761586986  0.5836057679710350  0.4287712035643648   T   T   T
  0.9943717185056562  0.8668178020349149  0.4295657909938287   T   T   T
  0.4755293717117632  0.1272605453387131  0.4274783625970779   T   T   T
  0.5253426029804728  0.4349121063135360  0.5021910779346099   T   T   T
  0.9927158682122734  0.6068105035832798  0.4815693429160054   T   T   T
  0.4888708422978438  0.8588377765116660  0.4788401665748180   T   T   T
  0.9254347160442524  0.1159183373328542  0.4942339614359852   T   T   T
  0.1380807109613578  0.9524822642055878  0.4758555439872954   T   T   T
  0.6178677583544762  0.6507597852142886  0.3790507728440031   T   T   T
  0.5542755715495782  0.1585041826887953  0.3660758541893879   T   T   T
  0.1643605978350020  0.1791536575132811  0.4555164290546671   T   T   T
  0.7711206110425345  0.4555946405853462  0.4566718183101768   T   T   T
  0.9290338762359540  0.6455346579944794  0.3161900104640785   T   T   T
  0.0808356843430159  0.3918707953932513  0.3802304530432752   T   T   T
  0.1149562022132475  0.9219318839473358  0.3780661952424956   T   T   T
  0.3259402344122226  0.4299197794899287  0.3139267974554146   T   T   T
  0.7883116925048994  0.2287081207646823  0.4120330672899990   T   T   T
  0.8703814326496281  0.6620919200925413  0.4283979240312620   T   T   T
  0.4199111422832241  0.3710858081002145  0.4236368282695380   T   T   T
  0.4234755213704684  0.8667202888662094  0.3130926527417026   T   T   T
  0.6024675957534090  0.6499022445079613  0.4810525250787389   T   T   T
  0.3801110324133720  0.9202096028238065  0.4269511104613999   T   T   T
  0.7420267172486432  0.0072371166817801  0.4545107639265362   T   T   T
  0.2393535476441392  0.7243326241301454  0.4543350659418847   T   T   T
  0.2505288995815902  0.7149982585459070  0.3530831741427901   T   T   T
  0.1858217532555587  0.4213617587369468  0.4775305194753113   T   T   T
  0.1827023962921826  0.2227732446013957  0.3391771685771448   T   T   T
  0.7379157478012118  0.4626290127316032  0.3459451734802398   T   T   T
  0.7367454621732654  0.9611335442001737  0.3484710684909401   T   T   T
  0.8413355994718819  0.1331245525162821  0.3032605980382801   T   T   T
  0.5984935233851670  0.2425483738963304  0.4762083423589735   T   T   T
 
  0.00000000E+00  0.00000000E+00  0.00000000E+00
  0.00000000E+00  0.00000000E+00  0.00000000E+00
  0.00000000E+00  0.00000000E+00  0.00000000E+00
  0.00000000E+00  0.00000000E+00  0.00000000E+00
  0.00000000E+00  0.00000000E+00  0.00000000E+00
  0.00000000E+00  0.00000000E+00  0.00000000E+00
  0.00000000E+00  0.00000000E+00  0.00000000E+00
  0.00000000E+00  0.00000000E+00  0.00000000E+00
  0.00000000E+00  0.00000000E+00  0.00000000E+00
  0.00000000E+00  0.00000000E+00  0.00000000E+00
  0.00000000E+00  0.00000000E+00  0.00000000E+00
  0.00000000E+00  0.00000000E+00  0.00000000E+00
  0.00000000E+00  0.00000000E+00  0.00000000E+00
  0.00000000E+00  0.00000000E+00  0.00000000E+00
  0.00000000E+00  0.00000000E+00  0.00000000E+00
  0.00000000E+00  0.00000000E+00  0.00000000E+00
  0.00000000E+00  0.00000000E+00  0.00000000E+00
  0.00000000E+00  0.00000000E+00  0.00000000E+00
  0.00000000E+00  0.00000000E+00  0.00000000E+00
  0.00000000E+00  0.00000000E+00  0.00000000E+00
  0.00000000E+00  0.00000000E+00  0.00000000E+00
  0.00000000E+00  0.00000000E+00  0.00000000E+00
  0.00000000E+00  0.00000000E+00  0.00000000E+00
  0.00000000E+00  0.00000000E+00  0.00000000E+00
  0.00000000E+00  0.00000000E+00  0.00000000E+00
  0.00000000E+00  0.00000000E+00  0.00000000E+00
  0.00000000E+00  0.00000000E+00  0.00000000E+00
  0.00000000E+00  0.00000000E+00  0.00000000E+00
  0.00000000E+00  0.00000000E+00  0.00000000E+00
  0.00000000E+00  0.00000000E+00  0.00000000E+00
  0.00000000E+00  0.00000000E+00  0.00000000E+00
  0.00000000E+00  0.00000000E+00  0.00000000E+00
  0.00000000E+00  0.00000000E+00  0.00000000E+00
  0.00000000E+00  0.00000000E+00  0.00000000E+00
  0.00000000E+00  0.00000000E+00  0.00000000E+00
  0.00000000E+00  0.00000000E+00  0.00000000E+00
  0.00000000E+00  0.00000000E+00  0.00000000E+00
  0.00000000E+00  0.00000000E+00  0.00000000E+00
  0.00000000E+00  0.00000000E+00  0.00000000E+00
  0.00000000E+00  0.00000000E+00  0.00000000E+00
  0.00000000E+00  0.00000000E+00  0.00000000E+00
  0.00000000E+00  0.00000000E+00  0.00000000E+00
  0.00000000E+00  0.00000000E+00  0.00000000E+00
  0.00000000E+00  0.00000000E+00  0.00000000E+00
  0.00000000E+00  0.00000000E+00  0.00000000E+00
  0.00000000E+00  0.00000000E+00  0.00000000E+00
  0.00000000E+00  0.00000000E+00  0.00000000E+00
  0.00000000E+00  0.00000000E+00  0.00000000E+00
  0.00000000E+00  0.00000000E+00  0.00000000E+00
  0.00000000E+00  0.00000000E+00  0.00000000E+00
  0.00000000E+00  0.00000000E+00  0.00000000E+00
  0.00000000E+00  0.00000000E+00  0.00000000E+00
  0.00000000E+00  0.00000000E+00  0.00000000E+00
  0.00000000E+00  0.00000000E+00  0.00000000E+00
  0.00000000E+00  0.00000000E+00  0.00000000E+00
  0.00000000E+00  0.00000000E+00  0.00000000E+00
  0.00000000E+00  0.00000000E+00  0.00000000E+00
  0.00000000E+00  0.00000000E+00  0.00000000E+00
  0.00000000E+00  0.00000000E+00  0.00000000E+00
  0.00000000E+00  0.00000000E+00  0.00000000E+00
  0.00000000E+00  0.00000000E+00  0.00000000E+00
  0.00000000E+00  0.00000000E+00  0.00000000E+00
  0.00000000E+00  0.00000000E+00  0.00000000E+00
  0.00000000E+00  0.00000000E+00  0.00000000E+00
  0.00000000E+00  0.00000000E+00  0.00000000E+00
  0.00000000E+00  0.00000000E+00  0.00000000E+00
  0.00000000E+00  0.00000000E+00  0.00000000E+00
  0.00000000E+00  0.00000000E+00  0.00000000E+00
  0.00000000E+00  0.00000000E+00  0.00000000E+00
  0.00000000E+00  0.00000000E+00  0.00000000E+00
  0.00000000E+00  0.00000000E+00  0.00000000E+00
  0.00000000E+00  0.00000000E+00  0.00000000E+00
  0.00000000E+00  0.00000000E+00  0.00000000E+00
  0.00000000E+00  0.00000000E+00  0.00000000E+00
  0.00000000E+00  0.00000000E+00  0.00000000E+00
  0.00000000E+00  0.00000000E+00  0.00000000E+00
  0.00000000E+00  0.00000000E+00  0.00000000E+00
  0.00000000E+00  0.00000000E+00  0.00000000E+00
  0.00000000E+00  0.00000000E+00  0.00000000E+00
  0.00000000E+00  0.00000000E+00  0.00000000E+00
  0.00000000E+00  0.00000000E+00  0.00000000E+00
  0.00000000E+00  0.00000000E+00  0.00000000E+00
  0.00000000E+00  0.00000000E+00  0.00000000E+00
  0.00000000E+00  0.00000000E+00  0.00000000E+00
  0.00000000E+00  0.00000000E+00  0.00000000E+00
  0.00000000E+00  0.00000000E+00  0.00000000E+00
  0.00000000E+00  0.00000000E+00  0.00000000E+00
  0.00000000E+00  0.00000000E+00  0.00000000E+00
