Fe  Fe  H   O   S   Ni  Fe Co           
   1.00000000000000     
     5.6388600000000002    0.0000000000000000    0.0000000000000000
     0.0000000000000000   10.2679500000000008    0.0000000000000000
     0.0000000000000000    0.0000000000000000   41.0286899999999974
   Fe   Fe   H    O    S    Ni   Fe   Co
     6     6    12    24    16    22     1     1
Selective dynamics
Direct
  0.7397359945742632  0.1502931502242295  0.1195722386874353   T   T   T
  0.0244516729690876  0.6235757284412594  0.1432882351427833   T   T   T
  0.4251424801859742  0.1405332045553381  0.1796656531376014   T   T   T
  0.6810339567208266  0.6358014392065494  0.1994408459522793   T   T   T
  0.1004045614705380  0.1288460477054493  0.2347691671259032   T   T   T
  0.3781369398420580  0.6522435946792778  0.2610654016307809   T   T   T
  0.2387981323335990  0.3352168064245668  0.1199749535202777   T   T   T
  0.5268800646502266  0.8599304443918606  0.1430172053731846   T   T   T
  0.9242067622062868  0.3466080114759534  0.1808537608923826   T   T   T
  0.1811779386076378  0.8471095378953851  0.1979309410109910   T   T   T
  0.6070534963265430  0.3549229529118050  0.2398826369866017   T   T   T
  0.8748723333116207  0.8481369868509843  0.2592415351612969   T   T   T
  0.7599935495713551  0.4003560882743425  0.1219561612265397   T   T   T
  0.2598389362155540  0.0842372826385150  0.1215297791561593   T   T   T
  0.9488947413116451  0.9105666814654072  0.1260613578508327   T   T   T
  0.4480276868385800  0.5744352075288464  0.1264575326551317   T   T   T
  0.9491018127508506  0.0867122384594035  0.1786122047280359   T   T   T
  0.4617628493494459  0.4039217844705656  0.1801927445065846   T   T   T
  0.1583355506232908  0.5897619817288104  0.2009118675854206   T   T   T
  0.6537306478223912  0.8944967293121450  0.2003448174945916   T   T   T
  0.1699325926891656  0.4077635179340738  0.2547486387437374   T   T   T
  0.6452789291195105  0.0850847453677481  0.2438932787546098   T   T   T
  0.8447747811550732  0.5996055265089723  0.2577203258118019   T   T   T
  0.3407125517293388  0.9050725337513635  0.2563412459405387   T   T   T
  0.0484431949497582  0.1928910272558567  0.1079714978533237   T   T   T
  0.5479565947364128  0.2918161021052075  0.1081307371087480   T   T   T
  0.7920467624655023  0.9481887972816617  0.1217292000772897   T   T   T
  0.2912532450797267  0.5372966635408031  0.1217818071129837   T   T   T
  0.9045598369824694  0.4366127721290625  0.1334968509318370   T   T   T
  0.4032231064000567  0.0475563706274756  0.1333073875224511   T   T   T
  0.2002961415860876  0.7872070386873683  0.1512256232094887   T   T   T
  0.7014374786599922  0.6980516289869025  0.1511869500781751   T   T   T
  0.7499216643124210  0.1882657679419633  0.1675489518885142   T   T   T
  0.2494620612956706  0.2967022083112147  0.1676610648694809   T   T   T
  0.0212148237094854  0.5507550124855596  0.1882399381034774   T   T   T
  0.5151167002417348  0.9333286407785264  0.1878354291622298   T   T   T
  0.0895636618292045  0.0460705851064822  0.1906159454133166   T   T   T
  0.6016863476620955  0.4412897639118399  0.1920684719832959   T   T   T
  0.8584027045797005  0.7985692168253945  0.2131453989362897   T   T   T
  0.3551924119964173  0.6914063353979939  0.2140381998444597   T   T   T
  0.4275483541054049  0.1761996132967374  0.2279231377377196   T   T   T
  0.9445541284819934  0.2925082784566996  0.2275277099307039   T   T   T
  0.6971276346759014  0.5649510486677604  0.2467776704176332   T   T   T
  0.1868872412787953  0.9376008793796494  0.2461451030837746   T   T   T
  0.3206184432328426  0.4448027215356369  0.2629596051097382   T   T   T
  0.7961431535322402  0.0517287190671237  0.2550456669453713   T   T   T
  0.0482005365591747  0.6904236761137641  0.2732573592981025   T   T   T
  0.5461056264815568  0.8197600927836431  0.2712059877544217   T   T   T
  0.9824845169904042  0.3289907205986989  0.3153666647204039   T   T   T
  0.5250439580500124  0.6117652404619591  0.3205144794724342   T   T   T
  0.0540047026624885  0.8730868041568121  0.3251144541847495   T   T   T
  0.5247295639344641  0.0977990396493632  0.3229022513283749   T   T   T
  0.4759011687781873  0.3593333569214014  0.3667350748608880   T   T   T
  0.0082008573588697  0.5959694472824160  0.3721185281508645   T   T   T
  0.5142330054076152  0.8511573920816548  0.3783423974396073   T   T   T
  0.9832787094926241  0.1156029182634136  0.3780972332888362   T   T   T
  0.0193247611575412  0.3685466481355213  0.4294351751722540   T   T   T
  0.5272705355674239  0.5993452175000854  0.4276167835732897   T   T   T
  0.9970772357890911  0.8517272456370658  0.4264360136972300   T   T   T
  0.4811944451688968  0.1089926895614240  0.4277683289173723   T   T   T
  0.5199931868581434  0.3665176444323862  0.4890554760357202   T   T   T
  0.0187688752198005  0.6157385067841137  0.4933436051281060   T   T   T
  0.4577673558854142  0.8733873075639605  0.4829566843623800   T   T   T
  0.9710205335266492  0.1012199565003977  0.4819353477487830   T   T   T
  0.9060091911554521  0.6512275425072334  0.4214927957743264   T   T   T
  0.2276062074199734  0.2235069550767120  0.4559673451413997   T   T   T
  0.2133682624999193  0.4579855086407202  0.4707336600432043   T   T   T
  0.4610713361631461  0.8836814776661045  0.3149442704604564   T   T   T
  0.7870233704417497  0.4825842123910835  0.4607987400376561   T   T   T
  0.3672283974802246  0.9071386424290181  0.4271775205163179   T   T   T
  0.7579859380949795  0.4624388765103249  0.3414267210532770   T   T   T
  0.1453400989465591  0.9227497340843331  0.3770189143172324   T   T   T
  0.2254438925874737  0.2076274087905174  0.3438801214764565   T   T   T
  0.8119111993941033  0.1688664517623015  0.2923608084524546   T   T   T
  0.0861073809110497  0.9008971308723893  0.4776442456143437   T   T   T
  0.7291577547701997  0.9708276201185840  0.4529634320171083   T   T   T
  0.2529412026275829  0.7036861136341531  0.4551114805634112   T   T   T
  0.6027454169212295  0.1642344009822058  0.3751788244381384   T   T   T
  0.8537670304045306  0.1774404734661185  0.4260667838498967   T   T   T
  0.2715196379842169  0.7209823576872318  0.3499981019900297   T   T   T
  0.3506417252657825  0.4124669648719320  0.3117793629042077   T   T   T
  0.6181335209548716  0.1755845330026729  0.4774195551413062   T   T   T
  0.7746860502683305  0.9749450218776367  0.3501330044728323   T   T   T
  0.6353630842466864  0.6504365104096651  0.3743944814083461   T   T   T
  0.0988950758418943  0.3948614053279687  0.3773252946506437   T   T   T
  0.9128563891898298  0.6729336483961910  0.3183801367346104   T   T   T
  0.5073118776654857  0.3648459373192539  0.4239048904665688   T   T   T
  0.6823977297075827  0.7039887537677749  0.4766587869461511   T   T   T
 
  0.00000000E+00  0.00000000E+00  0.00000000E+00
  0.00000000E+00  0.00000000E+00  0.00000000E+00
  0.00000000E+00  0.00000000E+00  0.00000000E+00
  0.00000000E+00  0.00000000E+00  0.00000000E+00
  0.00000000E+00  0.00000000E+00  0.00000000E+00
  0.00000000E+00  0.00000000E+00  0.00000000E+00
  0.00000000E+00  0.00000000E+00  0.00000000E+00
  0.00000000E+00  0.00000000E+00  0.00000000E+00
  0.00000000E+00  0.00000000E+00  0.00000000E+00
  0.00000000E+00  0.00000000E+00  0.00000000E+00
  0.00000000E+00  0.00000000E+00  0.00000000E+00
  0.00000000E+00  0.00000000E+00  0.00000000E+00
  0.00000000E+00  0.00000000E+00  0.00000000E+00
  0.00000000E+00  0.00000000E+00  0.00000000E+00
  0.00000000E+00  0.00000000E+00  0.00000000E+00
  0.00000000E+00  0.00000000E+00  0.00000000E+00
  0.00000000E+00  0.00000000E+00  0.00000000E+00
  0.00000000E+00  0.00000000E+00  0.00000000E+00
  0.00000000E+00  0.00000000E+00  0.00000000E+00
  0.00000000E+00  0.00000000E+00  0.00000000E+00
  0.00000000E+00  0.00000000E+00  0.00000000E+00
  0.00000000E+00  0.00000000E+00  0.00000000E+00
  0.00000000E+00  0.00000000E+00  0.00000000E+00
  0.00000000E+00  0.00000000E+00  0.00000000E+00
  0.00000000E+00  0.00000000E+00  0.00000000E+00
  0.00000000E+00  0.00000000E+00  0.00000000E+00
  0.00000000E+00  0.00000000E+00  0.00000000E+00
  0.00000000E+00  0.00000000E+00  0.00000000E+00
  0.00000000E+00  0.00000000E+00  0.00000000E+00
  0.00000000E+00  0.00000000E+00  0.00000000E+00
  0.00000000E+00  0.00000000E+00  0.00000000E+00
  0.00000000E+00  0.00000000E+00  0.00000000E+00
  0.00000000E+00  0.00000000E+00  0.00000000E+00
  0.00000000E+00  0.00000000E+00  0.00000000E+00
  0.00000000E+00  0.00000000E+00  0.00000000E+00
  0.00000000E+00  0.00000000E+00  0.00000000E+00
  0.00000000E+00  0.00000000E+00  0.00000000E+00
  0.00000000E+00  0.00000000E+00  0.00000000E+00
  0.00000000E+00  0.00000000E+00  0.00000000E+00
  0.00000000E+00  0.00000000E+00  0.00000000E+00
  0.00000000E+00  0.00000000E+00  0.00000000E+00
  0.00000000E+00  0.00000000E+00  0.00000000E+00
  0.00000000E+00  0.00000000E+00  0.00000000E+00
  0.00000000E+00  0.00000000E+00  0.00000000E+00
  0.00000000E+00  0.00000000E+00  0.00000000E+00
  0.00000000E+00  0.00000000E+00  0.00000000E+00
  0.00000000E+00  0.00000000E+00  0.00000000E+00
  0.00000000E+00  0.00000000E+00  0.00000000E+00
  0.00000000E+00  0.00000000E+00  0.00000000E+00
  0.00000000E+00  0.00000000E+00  0.00000000E+00
  0.00000000E+00  0.00000000E+00  0.00000000E+00
  0.00000000E+00  0.00000000E+00  0.00000000E+00
  0.00000000E+00  0.00000000E+00  0.00000000E+00
  0.00000000E+00  0.00000000E+00  0.00000000E+00
  0.00000000E+00  0.00000000E+00  0.00000000E+00
  0.00000000E+00  0.00000000E+00  0.00000000E+00
  0.00000000E+00  0.00000000E+00  0.00000000E+00
  0.00000000E+00  0.00000000E+00  0.00000000E+00
  0.00000000E+00  0.00000000E+00  0.00000000E+00
  0.00000000E+00  0.00000000E+00  0.00000000E+00
  0.00000000E+00  0.00000000E+00  0.00000000E+00
  0.00000000E+00  0.00000000E+00  0.00000000E+00
  0.00000000E+00  0.00000000E+00  0.00000000E+00
  0.00000000E+00  0.00000000E+00  0.00000000E+00
  0.00000000E+00  0.00000000E+00  0.00000000E+00
  0.00000000E+00  0.00000000E+00  0.00000000E+00
  0.00000000E+00  0.00000000E+00  0.00000000E+00
  0.00000000E+00  0.00000000E+00  0.00000000E+00
  0.00000000E+00  0.00000000E+00  0.00000000E+00
  0.00000000E+00  0.00000000E+00  0.00000000E+00
  0.00000000E+00  0.00000000E+00  0.00000000E+00
  0.00000000E+00  0.00000000E+00  0.00000000E+00
  0.00000000E+00  0.00000000E+00  0.00000000E+00
  0.00000000E+00  0.00000000E+00  0.00000000E+00
  0.00000000E+00  0.00000000E+00  0.00000000E+00
  0.00000000E+00  0.00000000E+00  0.00000000E+00
  0.00000000E+00  0.00000000E+00  0.00000000E+00
  0.00000000E+00  0.00000000E+00  0.00000000E+00
  0.00000000E+00  0.00000000E+00  0.00000000E+00
  0.00000000E+00  0.00000000E+00  0.00000000E+00
  0.00000000E+00  0.00000000E+00  0.00000000E+00
  0.00000000E+00  0.00000000E+00  0.00000000E+00
  0.00000000E+00  0.00000000E+00  0.00000000E+00
  0.00000000E+00  0.00000000E+00  0.00000000E+00
  0.00000000E+00  0.00000000E+00  0.00000000E+00
  0.00000000E+00  0.00000000E+00  0.00000000E+00
  0.00000000E+00  0.00000000E+00  0.00000000E+00
  0.00000000E+00  0.00000000E+00  0.00000000E+00
