Fe  Fe  H   O   S   Ni  Fe Co           
   1.00000000000000     
     5.6388600000000002    0.0000000000000000    0.0000000000000000
     0.0000000000000000   10.2679500000000008    0.0000000000000000
     0.0000000000000000    0.0000000000000000   41.0286899999999974
   Fe   Fe   H    O    S    Ni   Fe   Co
     6     6    12    24    16    22     1     1
Selective dynamics
Direct
  0.7434631456087091  0.1502111610962208  0.1202235483755744   T   T   T
  0.0276634826163753  0.6238685771943416  0.1440329216215462   T   T   T
  0.4294885741381791  0.1402112977945335  0.1804717258470510   T   T   T
  0.6827258575690225  0.6362421852911104  0.1999397038520085   T   T   T
  0.1053134822493536  0.1280990109913306  0.2356721372485575   T   T   T
  0.3812673339840712  0.6512317424174578  0.2616259098600328   T   T   T
  0.2430420707495144  0.3355465651164236  0.1206304450375244   T   T   T
  0.5285834235403258  0.8603190654525210  0.1437078234029931   T   T   T
  0.9286465717375484  0.3465528796397765  0.1814702041467916   T   T   T
  0.1823788331213691  0.8471348271377296  0.1988081206374640   T   T   T
  0.6097584229203007  0.3541941962899140  0.2400082076912063   T   T   T
  0.8768753081527055  0.8471817829763686  0.2604116063800359   T   T   T
  0.7639407772791043  0.4004786850513146  0.1225594357335068   T   T   T
  0.2630040775051006  0.0848409666745363  0.1222919383814065   T   T   T
  0.9500442809432410  0.9104313418476927  0.1264225788329713   T   T   T
  0.4511888245057286  0.5751834333021566  0.1271049360553122   T   T   T
  0.9525277824864971  0.0870553398059875  0.1794794658077531   T   T   T
  0.4661846144212043  0.4033818476323563  0.1804860428793851   T   T   T
  0.1625189523287141  0.5897757313485162  0.2015708086257527   T   T   T
  0.6563893752852313  0.8946822824506099  0.2010142399883641   T   T   T
  0.1729696029885099  0.4038228309058571  0.2545342040647802   T   T   T
  0.6501689378975010  0.0862467234629502  0.2452977100537499   T   T   T
  0.8477455914612027  0.5978237358692596  0.2575844862942544   T   T   T
  0.3433676721281559  0.9037310750452221  0.2572872584091942   T   T   T
  0.0526406122101892  0.1930139899446576  0.1088031875890472   T   T   T
  0.5518279398252883  0.2918935802097727  0.1087154130200958   T   T   T
  0.7932086224767516  0.9479367260970127  0.1219430379665810   T   T   T
  0.2942797046613365  0.5382546052736975  0.1222929380549145   T   T   T
  0.9082799955607848  0.4367773652737745  0.1341124997732777   T   T   T
  0.4061192997119240  0.0478369149930268  0.1340971668040004   T   T   T
  0.2017386182427088  0.7877376446986842  0.1520914868856672   T   T   T
  0.7031994436286391  0.6984788762847409  0.1521379283437077   T   T   T
  0.7536763109334710  0.1882117422559089  0.1682161676255790   T   T   T
  0.2536484118501626  0.2965144446443239  0.1683042167710648   T   T   T
  0.0262476674650448  0.5503800468910557  0.1888572057190589   T   T   T
  0.5178958443954980  0.9337441688251595  0.1884635858733506   T   T   T
  0.0926751156656280  0.0461015817061425  0.1914835461433263   T   T   T
  0.6056478318196999  0.4411715556923843  0.1923782358346429   T   T   T
  0.8592893428555999  0.7989699783154500  0.2139929432666365   T   T   T
  0.3582093781801700  0.6920013488456718  0.2147123102605002   T   T   T
  0.4337185063664243  0.1750729236239434  0.2289555298725359   T   T   T
  0.9494126896403016  0.2918825582016569  0.2282858263988470   T   T   T
  0.6978196503764903  0.5636053960154599  0.2469378364876090   T   T   T
  0.1902828841270793  0.9360648152012869  0.2468423730140449   T   T   T
  0.3226331085417558  0.4406033999093536  0.2632190401719368   T   T   T
  0.8019380732774199  0.0521612946259859  0.2561392552851851   T   T   T
  0.0485809094995284  0.6846104381645531  0.2729947538747796   T   T   T
  0.5475930921793231  0.8194171781767282  0.2729572646656603   T   T   T
  0.9865521656079612  0.3314412781760069  0.3179279278388228   T   T   T
  0.5258140778672680  0.5997751675579932  0.3191656418483799   T   T   T
  0.0585675088491505  0.8679143953109636  0.3226159749624725   T   T   T
  0.5351231087059145  0.1092262463303153  0.3223039877028470   T   T   T
  0.4699364678194877  0.3560511148734232  0.3737980016556663   T   T   T
  0.0083448912064160  0.5948070517316800  0.3713342073555451   T   T   T
  0.5332174910795474  0.8575333933227033  0.3716955628475609   T   T   T
  0.0034029079372597  0.1113549008449508  0.3788443307272170   T   T   T
  0.9769210166134882  0.3651761028786365  0.4290704604370712   T   T   T
  0.5046272794159485  0.6184187845772335  0.4220634208741881   T   T   T
  0.0359380043148594  0.8522316593144216  0.4248764042231339   T   T   T
  0.5035843709369012  0.0994594819712213  0.4267236761829761   T   T   T
  0.4712712304871858  0.3623190330127538  0.4845718068923363   T   T   T
  0.9375261338714987  0.6243030029214331  0.4872260761370786   T   T   T
  0.5224184011524940  0.8981154460372258  0.4964791487301329   T   T   T
  0.0078551388996524  0.1017602337549749  0.4800397252235131   T   T   T
  0.1585587430896633  0.9182069328743044  0.3749280528906549   T   T   T
  0.1274598509948448  0.4482843909015758  0.4750239746086609   T   T   T
  0.8788916158089667  0.6649969842021157  0.4188169838381729   T   T   T
  0.9117957377194511  0.6631360954329216  0.3176666327533632   T   T   T
  0.6418807531156246  0.6556711495043885  0.3703770189528417   T   T   T
  0.2493823040701852  0.2319036139875119  0.4532662471456394   T   T   T
  0.8007563493661051  0.9872379688277011  0.3463654361403719   T   T   T
  0.0841080158306589  0.3913104562472749  0.3748618969596080   T   T   T
  0.2713220751560840  0.7153716899357120  0.3472163773078236   T   T   T
  0.2136232390956275  0.6797556599741937  0.4534305881628259   T   T   T
  0.8371543195169848  0.1684995540800341  0.2932619198777079   T   T   T
  0.7745528869667845  0.9560539537444921  0.4536421632671772   T   T   T
  0.3507693124872118  0.4274713186367378  0.4220133259345168   T   T   T
  0.1692219997276064  0.9089101109163388  0.4752773135936985   T   T   T
  0.6341490124614977  0.7328931329781715  0.4661830177855137   T   T   T
  0.7169365952038455  0.4888630057703292  0.4551159947714246   T   T   T
  0.2372111308281455  0.2074696817742175  0.3445198515686158   T   T   T
  0.4589773305486720  0.8953255716489849  0.3160895131704108   T   T   T
  0.6208403123930548  0.1640853838589240  0.3759667249399326   T   T   T
  0.3534748323317138  0.4056158280067951  0.3118662900979888   T   T   T
  0.7349907222373325  0.4513006626213121  0.3436799556510805   T   T   T
  0.8760253363205770  0.1632939440591603  0.4285760043462245   T   T   T
  0.5831820302303039  0.1358035498756624  0.4881798800809262   T   T   T
  0.4228612506251296  0.8822952088605703  0.4241652735866124   T   T   T
 
  0.00000000E+00  0.00000000E+00  0.00000000E+00
  0.00000000E+00  0.00000000E+00  0.00000000E+00
  0.00000000E+00  0.00000000E+00  0.00000000E+00
  0.00000000E+00  0.00000000E+00  0.00000000E+00
  0.00000000E+00  0.00000000E+00  0.00000000E+00
  0.00000000E+00  0.00000000E+00  0.00000000E+00
  0.00000000E+00  0.00000000E+00  0.00000000E+00
  0.00000000E+00  0.00000000E+00  0.00000000E+00
  0.00000000E+00  0.00000000E+00  0.00000000E+00
  0.00000000E+00  0.00000000E+00  0.00000000E+00
  0.00000000E+00  0.00000000E+00  0.00000000E+00
  0.00000000E+00  0.00000000E+00  0.00000000E+00
  0.00000000E+00  0.00000000E+00  0.00000000E+00
  0.00000000E+00  0.00000000E+00  0.00000000E+00
  0.00000000E+00  0.00000000E+00  0.00000000E+00
  0.00000000E+00  0.00000000E+00  0.00000000E+00
  0.00000000E+00  0.00000000E+00  0.00000000E+00
  0.00000000E+00  0.00000000E+00  0.00000000E+00
  0.00000000E+00  0.00000000E+00  0.00000000E+00
  0.00000000E+00  0.00000000E+00  0.00000000E+00
  0.00000000E+00  0.00000000E+00  0.00000000E+00
  0.00000000E+00  0.00000000E+00  0.00000000E+00
  0.00000000E+00  0.00000000E+00  0.00000000E+00
  0.00000000E+00  0.00000000E+00  0.00000000E+00
  0.00000000E+00  0.00000000E+00  0.00000000E+00
  0.00000000E+00  0.00000000E+00  0.00000000E+00
  0.00000000E+00  0.00000000E+00  0.00000000E+00
  0.00000000E+00  0.00000000E+00  0.00000000E+00
  0.00000000E+00  0.00000000E+00  0.00000000E+00
  0.00000000E+00  0.00000000E+00  0.00000000E+00
  0.00000000E+00  0.00000000E+00  0.00000000E+00
  0.00000000E+00  0.00000000E+00  0.00000000E+00
  0.00000000E+00  0.00000000E+00  0.00000000E+00
  0.00000000E+00  0.00000000E+00  0.00000000E+00
  0.00000000E+00  0.00000000E+00  0.00000000E+00
  0.00000000E+00  0.00000000E+00  0.00000000E+00
  0.00000000E+00  0.00000000E+00  0.00000000E+00
  0.00000000E+00  0.00000000E+00  0.00000000E+00
  0.00000000E+00  0.00000000E+00  0.00000000E+00
  0.00000000E+00  0.00000000E+00  0.00000000E+00
  0.00000000E+00  0.00000000E+00  0.00000000E+00
  0.00000000E+00  0.00000000E+00  0.00000000E+00
  0.00000000E+00  0.00000000E+00  0.00000000E+00
  0.00000000E+00  0.00000000E+00  0.00000000E+00
  0.00000000E+00  0.00000000E+00  0.00000000E+00
  0.00000000E+00  0.00000000E+00  0.00000000E+00
  0.00000000E+00  0.00000000E+00  0.00000000E+00
  0.00000000E+00  0.00000000E+00  0.00000000E+00
  0.00000000E+00  0.00000000E+00  0.00000000E+00
  0.00000000E+00  0.00000000E+00  0.00000000E+00
  0.00000000E+00  0.00000000E+00  0.00000000E+00
  0.00000000E+00  0.00000000E+00  0.00000000E+00
  0.00000000E+00  0.00000000E+00  0.00000000E+00
  0.00000000E+00  0.00000000E+00  0.00000000E+00
  0.00000000E+00  0.00000000E+00  0.00000000E+00
  0.00000000E+00  0.00000000E+00  0.00000000E+00
  0.00000000E+00  0.00000000E+00  0.00000000E+00
  0.00000000E+00  0.00000000E+00  0.00000000E+00
  0.00000000E+00  0.00000000E+00  0.00000000E+00
  0.00000000E+00  0.00000000E+00  0.00000000E+00
  0.00000000E+00  0.00000000E+00  0.00000000E+00
  0.00000000E+00  0.00000000E+00  0.00000000E+00
  0.00000000E+00  0.00000000E+00  0.00000000E+00
  0.00000000E+00  0.00000000E+00  0.00000000E+00
  0.00000000E+00  0.00000000E+00  0.00000000E+00
  0.00000000E+00  0.00000000E+00  0.00000000E+00
  0.00000000E+00  0.00000000E+00  0.00000000E+00
  0.00000000E+00  0.00000000E+00  0.00000000E+00
  0.00000000E+00  0.00000000E+00  0.00000000E+00
  0.00000000E+00  0.00000000E+00  0.00000000E+00
  0.00000000E+00  0.00000000E+00  0.00000000E+00
  0.00000000E+00  0.00000000E+00  0.00000000E+00
  0.00000000E+00  0.00000000E+00  0.00000000E+00
  0.00000000E+00  0.00000000E+00  0.00000000E+00
  0.00000000E+00  0.00000000E+00  0.00000000E+00
  0.00000000E+00  0.00000000E+00  0.00000000E+00
  0.00000000E+00  0.00000000E+00  0.00000000E+00
  0.00000000E+00  0.00000000E+00  0.00000000E+00
  0.00000000E+00  0.00000000E+00  0.00000000E+00
  0.00000000E+00  0.00000000E+00  0.00000000E+00
  0.00000000E+00  0.00000000E+00  0.00000000E+00
  0.00000000E+00  0.00000000E+00  0.00000000E+00
  0.00000000E+00  0.00000000E+00  0.00000000E+00
  0.00000000E+00  0.00000000E+00  0.00000000E+00
  0.00000000E+00  0.00000000E+00  0.00000000E+00
  0.00000000E+00  0.00000000E+00  0.00000000E+00
  0.00000000E+00  0.00000000E+00  0.00000000E+00
  0.00000000E+00  0.00000000E+00  0.00000000E+00
