Fe  Fe  H   O   S   Ni  Fe Co           
   1.00000000000000     
     5.6388600000000002    0.0000000000000000    0.0000000000000000
     0.0000000000000000   10.2679500000000008    0.0000000000000000
     0.0000000000000000    0.0000000000000000   41.0286899999999974
   Fe   Fe   H    O    S    Ni   Fe   Co
     6     6    12    24    16    22     1     1
Selective dynamics
Direct
  0.7439306547455008  0.1488906105048049  0.1202632402242599   T   T   T
  0.0271554505487377  0.6218094838775331  0.1441269952277117   T   T   T
  0.4299828083503323  0.1391403144875678  0.1804271939500805   T   T   T
  0.6823696811417792  0.6346159821415659  0.2001687641415661   T   T   T
  0.1060115089482896  0.1265168999697955  0.2355158153927757   T   T   T
  0.3806326146244439  0.6508830770764132  0.2619220773855412   T   T   T
  0.2431351472992419  0.3339759502155868  0.1206594591199616   T   T   T
  0.5287387711356806  0.8581272860502320  0.1438489013157042   T   T   T
  0.9288678918833230  0.3452442716543303  0.1815953588292296   T   T   T
  0.1824445593786344  0.8455595628669664  0.1988855851446124   T   T   T
  0.6110519565184097  0.3534727557153726  0.2404827770361636   T   T   T
  0.8744719713673228  0.8467768044512596  0.2603260028670141   T   T   T
  0.7632995999763895  0.3989129402242674  0.1227559991659788   T   T   T
  0.2633927547259264  0.0834772561669024  0.1223260204477148   T   T   T
  0.9499339825349039  0.9089867100515397  0.1263004581862253   T   T   T
  0.4497118829255161  0.5729921879092724  0.1267999690255804   T   T   T
  0.9530135751658614  0.0857698734353648  0.1794500133414772   T   T   T
  0.4661737857671937  0.4019740294795368  0.1807685095666107   T   T   T
  0.1625456458994124  0.5885829430408344  0.2017138155621819   T   T   T
  0.6559357363027203  0.8932018364023953  0.2010737462549674   T   T   T
  0.1718754657561115  0.4038625554994762  0.2539311614583376   T   T   T
  0.6496957038111980  0.0855797997691338  0.2447588934285795   T   T   T
  0.8482621110676792  0.5977416890564878  0.2578637530832277   T   T   T
  0.3436983474406259  0.9033752151507395  0.2573471926248392   T   T   T
  0.0528565496250503  0.1916827569841518  0.1086968605819583   T   T   T
  0.5524356234547956  0.2908383623745951  0.1088489089450321   T   T   T
  0.7927760300556875  0.9462783708391825  0.1220448798874924   T   T   T
  0.2929113594519323  0.5359731561752019  0.1220500979589643   T   T   T
  0.9076700715763625  0.4353760635836990  0.1343108542797661   T   T   T
  0.4063934187672416  0.0465246223737594  0.1341404068843797   T   T   T
  0.2022842279654917  0.7846961921678396  0.1522767174786148   T   T   T
  0.7026843558671090  0.6958889516626532  0.1523635352802200   T   T   T
  0.7544019581855947  0.1865226307076541  0.1682549565445730   T   T   T
  0.2535529792992935  0.2952164600701681  0.1683675352166195   T   T   T
  0.0261917426171925  0.5492255734048250  0.1889989312452673   T   T   T
  0.5174736718693789  0.9321486832755564  0.1885026954105813   T   T   T
  0.0934048406943655  0.0446855247037911  0.1913934418317088   T   T   T
  0.6056595831844401  0.4395757460484385  0.1927059168088293   T   T   T
  0.8585443225604732  0.7979726805778458  0.2141220114188818   T   T   T
  0.3584989581041763  0.6913821798691099  0.2148297710128806   T   T   T
  0.4340812242121527  0.1738866559172080  0.2289026202711550   T   T   T
  0.9506736696010468  0.2909176223445239  0.2282547285086506   T   T   T
  0.6985854979762420  0.5628166519609876  0.2472613397164332   T   T   T
  0.1897149720694833  0.9351191751171682  0.2468866013022084   T   T   T
  0.3204610192085219  0.4411238839432915  0.2629181459823668   T   T   T
  0.8013692896650020  0.0511423290175713  0.2556462131322032   T   T   T
  0.0474900462637539  0.6848096845962789  0.2732799593373550   T   T   T
  0.5471843913932830  0.8216850107766074  0.2734685234666430   T   T   T
  0.9682898935547415  0.3387532368677619  0.3155923767047356   T   T   T
  0.5279646519807139  0.6089901943513852  0.3193570523712453   T   T   T
  0.0428891028082799  0.8638348246347367  0.3231357575719725   T   T   T
  0.5203539407376754  0.1090781322171448  0.3198850685413985   T   T   T
  0.4365558947240764  0.3724605190471166  0.3716643872124275   T   T   T
  0.0052117760439699  0.5943879719732498  0.3742590643885543   T   T   T
  0.5341539473341614  0.8577479741750325  0.3723079621918586   T   T   T
  0.0044215185043422  0.1171803819832780  0.3782687160684483   T   T   T
  0.9787366828907555  0.3435601841034835  0.4298629978694343   T   T   T
  0.5075251691394463  0.6099596155790576  0.4269477091750095   T   T   T
  0.0340104266023740  0.8613187534057934  0.4223247367397865   T   T   T
  0.5166151567872650  0.1243125059350665  0.4212579753662502   T   T   T
  0.4842777804298777  0.3564765462706805  0.4845416774529084   T   T   T
  0.9946069042176826  0.6159744770165885  0.4791696619473846   T   T   T
  0.4740242216140235  0.8741432297355740  0.4887075647476118   T   T   T
  0.0136701422924803  0.1323902725306949  0.4937906660333365   T   T   T
  0.8970857185578450  0.6613735649463026  0.4245391828191807   T   T   T
  0.3652331260414605  0.4120018724686330  0.4241920878254678   T   T   T
  0.4105533909903008  0.9242042420379201  0.4194204204650706   T   T   T
  0.1698751727275298  0.9758971551674900  0.4664940203783046   T   T   T
  0.7332124775178832  0.4727311515218628  0.4545888796562423   T   T   T
  0.2301925766667489  0.2167713109896448  0.3416834870851072   T   T   T
  0.4353293208791342  0.8958083997406385  0.3163002663945941   T   T   T
  0.2640903945857118  0.2130303542043774  0.4552274190241119   T   T   T
  0.3343916559264444  0.4195096698222469  0.3119574088345308   T   T   T
  0.0510933642621637  0.3832558587717551  0.3778439382784743   T   T   T
  0.8311181201457748  0.1696670904776628  0.2923735627057266   T   T   T
  0.2740566042378156  0.7135799724082449  0.3490416170309902   T   T   T
  0.9195664791862544  0.6574705605406966  0.3184727133754697   T   T   T
  0.7246196586137410  0.4550983599081142  0.3441355453533789   T   T   T
  0.1554317074156542  0.9208273718685165  0.3725553190267797   T   T   T
  0.1231890861741181  0.4210228674584682  0.4762519050706346   T   T   T
  0.6508657446942112  0.6966950723171550  0.4738879497768299   T   T   T
  0.6385672541951963  0.6546041138459755  0.3753994827801760   T   T   T
  0.8971618899079333  0.1331848705180839  0.4333477267802950   T   T   T
  0.7516972013058112  0.9189143086611586  0.4532017213604542   T   T   T
  0.7863257534792014  0.9915255143390928  0.3460405044839496   T   T   T
  0.2587177999791737  0.7391461042207058  0.4531296028029553   T   T   T
  0.6061462946733550  0.1243193501071872  0.4853816034278408   T   T   T
  0.6435865871913545  0.1981660401419200  0.3704189055979487   T   T   T
 
  0.00000000E+00  0.00000000E+00  0.00000000E+00
  0.00000000E+00  0.00000000E+00  0.00000000E+00
  0.00000000E+00  0.00000000E+00  0.00000000E+00
  0.00000000E+00  0.00000000E+00  0.00000000E+00
  0.00000000E+00  0.00000000E+00  0.00000000E+00
  0.00000000E+00  0.00000000E+00  0.00000000E+00
  0.00000000E+00  0.00000000E+00  0.00000000E+00
  0.00000000E+00  0.00000000E+00  0.00000000E+00
  0.00000000E+00  0.00000000E+00  0.00000000E+00
  0.00000000E+00  0.00000000E+00  0.00000000E+00
  0.00000000E+00  0.00000000E+00  0.00000000E+00
  0.00000000E+00  0.00000000E+00  0.00000000E+00
  0.00000000E+00  0.00000000E+00  0.00000000E+00
  0.00000000E+00  0.00000000E+00  0.00000000E+00
  0.00000000E+00  0.00000000E+00  0.00000000E+00
  0.00000000E+00  0.00000000E+00  0.00000000E+00
  0.00000000E+00  0.00000000E+00  0.00000000E+00
  0.00000000E+00  0.00000000E+00  0.00000000E+00
  0.00000000E+00  0.00000000E+00  0.00000000E+00
  0.00000000E+00  0.00000000E+00  0.00000000E+00
  0.00000000E+00  0.00000000E+00  0.00000000E+00
  0.00000000E+00  0.00000000E+00  0.00000000E+00
  0.00000000E+00  0.00000000E+00  0.00000000E+00
  0.00000000E+00  0.00000000E+00  0.00000000E+00
  0.00000000E+00  0.00000000E+00  0.00000000E+00
  0.00000000E+00  0.00000000E+00  0.00000000E+00
  0.00000000E+00  0.00000000E+00  0.00000000E+00
  0.00000000E+00  0.00000000E+00  0.00000000E+00
  0.00000000E+00  0.00000000E+00  0.00000000E+00
  0.00000000E+00  0.00000000E+00  0.00000000E+00
  0.00000000E+00  0.00000000E+00  0.00000000E+00
  0.00000000E+00  0.00000000E+00  0.00000000E+00
  0.00000000E+00  0.00000000E+00  0.00000000E+00
  0.00000000E+00  0.00000000E+00  0.00000000E+00
  0.00000000E+00  0.00000000E+00  0.00000000E+00
  0.00000000E+00  0.00000000E+00  0.00000000E+00
  0.00000000E+00  0.00000000E+00  0.00000000E+00
  0.00000000E+00  0.00000000E+00  0.00000000E+00
  0.00000000E+00  0.00000000E+00  0.00000000E+00
  0.00000000E+00  0.00000000E+00  0.00000000E+00
  0.00000000E+00  0.00000000E+00  0.00000000E+00
  0.00000000E+00  0.00000000E+00  0.00000000E+00
  0.00000000E+00  0.00000000E+00  0.00000000E+00
  0.00000000E+00  0.00000000E+00  0.00000000E+00
  0.00000000E+00  0.00000000E+00  0.00000000E+00
  0.00000000E+00  0.00000000E+00  0.00000000E+00
  0.00000000E+00  0.00000000E+00  0.00000000E+00
  0.00000000E+00  0.00000000E+00  0.00000000E+00
  0.00000000E+00  0.00000000E+00  0.00000000E+00
  0.00000000E+00  0.00000000E+00  0.00000000E+00
  0.00000000E+00  0.00000000E+00  0.00000000E+00
  0.00000000E+00  0.00000000E+00  0.00000000E+00
  0.00000000E+00  0.00000000E+00  0.00000000E+00
  0.00000000E+00  0.00000000E+00  0.00000000E+00
  0.00000000E+00  0.00000000E+00  0.00000000E+00
  0.00000000E+00  0.00000000E+00  0.00000000E+00
  0.00000000E+00  0.00000000E+00  0.00000000E+00
  0.00000000E+00  0.00000000E+00  0.00000000E+00
  0.00000000E+00  0.00000000E+00  0.00000000E+00
  0.00000000E+00  0.00000000E+00  0.00000000E+00
  0.00000000E+00  0.00000000E+00  0.00000000E+00
  0.00000000E+00  0.00000000E+00  0.00000000E+00
  0.00000000E+00  0.00000000E+00  0.00000000E+00
  0.00000000E+00  0.00000000E+00  0.00000000E+00
  0.00000000E+00  0.00000000E+00  0.00000000E+00
  0.00000000E+00  0.00000000E+00  0.00000000E+00
  0.00000000E+00  0.00000000E+00  0.00000000E+00
  0.00000000E+00  0.00000000E+00  0.00000000E+00
  0.00000000E+00  0.00000000E+00  0.00000000E+00
  0.00000000E+00  0.00000000E+00  0.00000000E+00
  0.00000000E+00  0.00000000E+00  0.00000000E+00
  0.00000000E+00  0.00000000E+00  0.00000000E+00
  0.00000000E+00  0.00000000E+00  0.00000000E+00
  0.00000000E+00  0.00000000E+00  0.00000000E+00
  0.00000000E+00  0.00000000E+00  0.00000000E+00
  0.00000000E+00  0.00000000E+00  0.00000000E+00
  0.00000000E+00  0.00000000E+00  0.00000000E+00
  0.00000000E+00  0.00000000E+00  0.00000000E+00
  0.00000000E+00  0.00000000E+00  0.00000000E+00
  0.00000000E+00  0.00000000E+00  0.00000000E+00
  0.00000000E+00  0.00000000E+00  0.00000000E+00
  0.00000000E+00  0.00000000E+00  0.00000000E+00
  0.00000000E+00  0.00000000E+00  0.00000000E+00
  0.00000000E+00  0.00000000E+00  0.00000000E+00
  0.00000000E+00  0.00000000E+00  0.00000000E+00
  0.00000000E+00  0.00000000E+00  0.00000000E+00
  0.00000000E+00  0.00000000E+00  0.00000000E+00
  0.00000000E+00  0.00000000E+00  0.00000000E+00
