Fe  Fe  H   O   S   Ni  Fe Co           
   1.00000000000000     
     5.6388600000000002    0.0000000000000000    0.0000000000000000
     0.0000000000000000   10.2679500000000008    0.0000000000000000
     0.0000000000000000    0.0000000000000000   41.0286899999999974
   Fe   Fe   H    O    S    Ni   Fe   Co
     6     6    12    24    16    22     1     1
Selective dynamics
Direct
  0.7629953725986237  0.1503325816360560  0.1190963477340975   T   T   T
  0.0449686194778125  0.6240410823891707  0.1429138592650767   T   T   T
  0.4514935507029799  0.1412611013539342  0.1794480815693396   T   T   T
  0.7021740409256852  0.6362786845128831  0.1986877478533219   T   T   T
  0.1359443677718160  0.1301971568748821  0.2353855193033527   T   T   T
  0.4058020662130054  0.6490437828532771  0.2606104522162287   T   T   T
  0.2620552662266420  0.3355097985017103  0.1194933403361052   T   T   T
  0.5447416799051922  0.8607932138182521  0.1428480020886775   T   T   T
  0.9498057348532163  0.3465607128982318  0.1804894542920783   T   T   T
  0.2009648176117062  0.8475741180737527  0.1980619324929394   T   T   T
  0.6384708608641421  0.3570628990304086  0.2397693044025145   T   T   T
  0.8999400867766559  0.8420272956932875  0.2603149878902728   T   T   T
  0.7813147604378510  0.3997308241565416  0.1218138203629017   T   T   T
  0.2799267524678610  0.0867050396062360  0.1216291703189407   T   T   T
  0.9643016836482022  0.9098597290191205  0.1249135897694710   T   T   T
  0.4659210778255646  0.5752969993303340  0.1250922717022196   T   T   T
  0.9731679073449965  0.0892229769296823  0.1792392518551884   T   T   T
  0.4861030315426441  0.4024940640623581  0.1798601092413244   T   T   T
  0.1821455287099780  0.5909322758317206  0.2004247934627895   T   T   T
  0.6754336400587566  0.8950287390148037  0.2002704874220301   T   T   T
  0.2003379722482194  0.4077289096335758  0.2539740973906993   T   T   T
  0.6866434339379458  0.0908761932909767  0.2466094631791218   T   T   T
  0.8726973063927136  0.5974596362972184  0.2563010883065879   T   T   T
  0.3651392256904823  0.9020197337837753  0.2555991801040160   T   T   T
  0.0736977659686824  0.1918657012158337  0.1076513389494963   T   T   T
  0.5722264719508003  0.2928067791635522  0.1077963855845521   T   T   T
  0.8072201310261983  0.9471848067578010  0.1205745953414668   T   T   T
  0.3087753552596097  0.5381803132855322  0.1206548189746999   T   T   T
  0.9260260184697326  0.4361624463909322  0.1333582254973553   T   T   T
  0.4232511653471945  0.0495249072745799  0.1335048382954999   T   T   T
  0.2188921095248716  0.7884164234821704  0.1511524427451411   T   T   T
  0.7209880751767753  0.6982198676170244  0.1509334049844761   T   T   T
  0.7758872602926246  0.1883399315764194  0.1669418482753691   T   T   T
  0.2754120465911903  0.2975425846943030  0.1670869705255300   T   T   T
  0.0453595087948308  0.5511199681752449  0.1877962488669709   T   T   T
  0.5378957816802955  0.9342885091366966  0.1876076614283411   T   T   T
  0.1125172365278730  0.0479451688028325  0.1914335193023992   T   T   T
  0.6257318008980298  0.4403080973576705  0.1917732420353159   T   T   T
  0.8784502051924087  0.7984436092652875  0.2134193657756866   T   T   T
  0.3781832273307619  0.6907331575708843  0.2135935125678533   T   T   T
  0.4610370245324054  0.1776529264708787  0.2277200242825034   T   T   T
  0.9751291418414871  0.2914749598526859  0.2271344402729785   T   T   T
  0.7206289261520504  0.5640184676102830  0.2462122645545116   T   T   T
  0.2108219468145549  0.9334959211439979  0.2455047674434781   T   T   T
  0.3486401234655340  0.4435862289980504  0.2633149980208529   T   T   T
  0.8343285409135989  0.0583949270892204  0.2585381341233992   T   T   T
  0.0763809812785444  0.6823139129553947  0.2718750711946470   T   T   T
  0.5706880238125974  0.8160362657948333  0.2722016571036603   T   T   T
  0.9336133204868878  0.3684817383516976  0.3088833869502561   T   T   T
  0.5293598247720002  0.6180653877504755  0.3246192844488188   T   T   T
  0.0147271205719771  0.8432721940429142  0.3257322529533160   T   T   T
  0.3919342568588473  0.0971525936662890  0.3077912605637392   T   T   T
  0.4494907872979547  0.3409120363727871  0.3708446450870695   T   T   T
  0.9907971532948990  0.5905903074465340  0.3788127903333409   T   T   T
  0.4898023164729877  0.8545478134214360  0.3815280270527689   T   T   T
  0.9244511679923030  0.1156613998569027  0.3680567498326726   T   T   T
  0.0126410354301675  0.3322209964862983  0.4313738087085449   T   T   T
  0.4945013171879676  0.5796683534578695  0.4283152826799495   T   T   T
  0.9966262847168914  0.8699397138235321  0.4300612903439179   T   T   T
  0.5055257326613469  0.1371391528897718  0.4335093366309317   T   T   T
  0.5012815132727948  0.4338409681085764  0.5006918171350490   T   T   T
  0.9865614929186033  0.6003842281182193  0.4791652041413061   T   T   T
  0.4891802419939092  0.8522928677496748  0.4797859766180406   T   T   T
  0.9306612593344189  0.1121850200728263  0.4968411080307031   T   T   T
  0.3716513331662903  0.9360345746932683  0.4280560567425008   T   T   T
  0.1686688095853993  0.1694247781936260  0.4578895580346855   T   T   T
  0.5979920375142306  0.6430699522526755  0.4804131201405356   T   T   T
  0.1295930950434558  0.9331446664733403  0.3777668572111084   T   T   T
  0.8683738019197502  0.6609015508035880  0.4279167059871013   T   T   T
  0.7250779030603521  0.4575496183201006  0.3485163376857788   T   T   T
  0.4133012934369284  0.8784515283166803  0.3135571345111470   T   T   T
  0.3991088346838634  0.3633979370853536  0.4258082005099791   T   T   T
  0.5388808504133438  0.1487182251057396  0.3549004710221545   T   T   T
  0.6190490823396864  0.6533760372238737  0.3796331174513325   T   T   T
  0.7539932211471321  0.4486747629863440  0.4551630501854305   T   T   T
  0.7448337586504925  0.9984301928734026  0.4580665332416639   T   T   T
  0.0839045134260868  0.3860423792799349  0.3801572065272275   T   T   T
  0.3104092912525070  0.4398884218071126  0.3129731965665453   T   T   T
  0.9467844778973010  0.6277604823919287  0.3160096276760443   T   T   T
  0.7424975295232933  0.2456215038671817  0.4009378569954665   T   T   T
  0.1395439991232069  0.9439324890078060  0.4792386827823228   T   T   T
  0.1613791497014454  0.2302324296881194  0.3361329324143018   T   T   T
  0.1595181058021821  0.4092828479980268  0.4773321415612416   T   T   T
  0.2395423366346345  0.7250665542637683  0.4533611816458686   T   T   T
  0.7432924819996571  0.9454557421163219  0.3500095424642656   T   T   T
  0.2542174722197533  0.7165275547534483  0.3541128055221057   T   T   T
  0.8092406427683501  0.1366835309662884  0.3029933351811828   T   T   T
  0.6063795003513405  0.2342170376419579  0.4812119977241062   T   T   T
 
  0.00000000E+00  0.00000000E+00  0.00000000E+00
  0.00000000E+00  0.00000000E+00  0.00000000E+00
  0.00000000E+00  0.00000000E+00  0.00000000E+00
  0.00000000E+00  0.00000000E+00  0.00000000E+00
  0.00000000E+00  0.00000000E+00  0.00000000E+00
  0.00000000E+00  0.00000000E+00  0.00000000E+00
  0.00000000E+00  0.00000000E+00  0.00000000E+00
  0.00000000E+00  0.00000000E+00  0.00000000E+00
  0.00000000E+00  0.00000000E+00  0.00000000E+00
  0.00000000E+00  0.00000000E+00  0.00000000E+00
  0.00000000E+00  0.00000000E+00  0.00000000E+00
  0.00000000E+00  0.00000000E+00  0.00000000E+00
  0.00000000E+00  0.00000000E+00  0.00000000E+00
  0.00000000E+00  0.00000000E+00  0.00000000E+00
  0.00000000E+00  0.00000000E+00  0.00000000E+00
  0.00000000E+00  0.00000000E+00  0.00000000E+00
  0.00000000E+00  0.00000000E+00  0.00000000E+00
  0.00000000E+00  0.00000000E+00  0.00000000E+00
  0.00000000E+00  0.00000000E+00  0.00000000E+00
  0.00000000E+00  0.00000000E+00  0.00000000E+00
  0.00000000E+00  0.00000000E+00  0.00000000E+00
  0.00000000E+00  0.00000000E+00  0.00000000E+00
  0.00000000E+00  0.00000000E+00  0.00000000E+00
  0.00000000E+00  0.00000000E+00  0.00000000E+00
  0.00000000E+00  0.00000000E+00  0.00000000E+00
  0.00000000E+00  0.00000000E+00  0.00000000E+00
  0.00000000E+00  0.00000000E+00  0.00000000E+00
  0.00000000E+00  0.00000000E+00  0.00000000E+00
  0.00000000E+00  0.00000000E+00  0.00000000E+00
  0.00000000E+00  0.00000000E+00  0.00000000E+00
  0.00000000E+00  0.00000000E+00  0.00000000E+00
  0.00000000E+00  0.00000000E+00  0.00000000E+00
  0.00000000E+00  0.00000000E+00  0.00000000E+00
  0.00000000E+00  0.00000000E+00  0.00000000E+00
  0.00000000E+00  0.00000000E+00  0.00000000E+00
  0.00000000E+00  0.00000000E+00  0.00000000E+00
  0.00000000E+00  0.00000000E+00  0.00000000E+00
  0.00000000E+00  0.00000000E+00  0.00000000E+00
  0.00000000E+00  0.00000000E+00  0.00000000E+00
  0.00000000E+00  0.00000000E+00  0.00000000E+00
  0.00000000E+00  0.00000000E+00  0.00000000E+00
  0.00000000E+00  0.00000000E+00  0.00000000E+00
  0.00000000E+00  0.00000000E+00  0.00000000E+00
  0.00000000E+00  0.00000000E+00  0.00000000E+00
  0.00000000E+00  0.00000000E+00  0.00000000E+00
  0.00000000E+00  0.00000000E+00  0.00000000E+00
  0.00000000E+00  0.00000000E+00  0.00000000E+00
  0.00000000E+00  0.00000000E+00  0.00000000E+00
  0.00000000E+00  0.00000000E+00  0.00000000E+00
  0.00000000E+00  0.00000000E+00  0.00000000E+00
  0.00000000E+00  0.00000000E+00  0.00000000E+00
  0.00000000E+00  0.00000000E+00  0.00000000E+00
  0.00000000E+00  0.00000000E+00  0.00000000E+00
  0.00000000E+00  0.00000000E+00  0.00000000E+00
  0.00000000E+00  0.00000000E+00  0.00000000E+00
  0.00000000E+00  0.00000000E+00  0.00000000E+00
  0.00000000E+00  0.00000000E+00  0.00000000E+00
  0.00000000E+00  0.00000000E+00  0.00000000E+00
  0.00000000E+00  0.00000000E+00  0.00000000E+00
  0.00000000E+00  0.00000000E+00  0.00000000E+00
  0.00000000E+00  0.00000000E+00  0.00000000E+00
  0.00000000E+00  0.00000000E+00  0.00000000E+00
  0.00000000E+00  0.00000000E+00  0.00000000E+00
  0.00000000E+00  0.00000000E+00  0.00000000E+00
  0.00000000E+00  0.00000000E+00  0.00000000E+00
  0.00000000E+00  0.00000000E+00  0.00000000E+00
  0.00000000E+00  0.00000000E+00  0.00000000E+00
  0.00000000E+00  0.00000000E+00  0.00000000E+00
  0.00000000E+00  0.00000000E+00  0.00000000E+00
  0.00000000E+00  0.00000000E+00  0.00000000E+00
  0.00000000E+00  0.00000000E+00  0.00000000E+00
  0.00000000E+00  0.00000000E+00  0.00000000E+00
  0.00000000E+00  0.00000000E+00  0.00000000E+00
  0.00000000E+00  0.00000000E+00  0.00000000E+00
  0.00000000E+00  0.00000000E+00  0.00000000E+00
  0.00000000E+00  0.00000000E+00  0.00000000E+00
  0.00000000E+00  0.00000000E+00  0.00000000E+00
  0.00000000E+00  0.00000000E+00  0.00000000E+00
  0.00000000E+00  0.00000000E+00  0.00000000E+00
  0.00000000E+00  0.00000000E+00  0.00000000E+00
  0.00000000E+00  0.00000000E+00  0.00000000E+00
  0.00000000E+00  0.00000000E+00  0.00000000E+00
  0.00000000E+00  0.00000000E+00  0.00000000E+00
  0.00000000E+00  0.00000000E+00  0.00000000E+00
  0.00000000E+00  0.00000000E+00  0.00000000E+00
  0.00000000E+00  0.00000000E+00  0.00000000E+00
  0.00000000E+00  0.00000000E+00  0.00000000E+00
  0.00000000E+00  0.00000000E+00  0.00000000E+00
