Fe  Fe  H   O   S   Ni  Fe Co           
   1.00000000000000     
     5.6388600000000002    0.0000000000000000    0.0000000000000000
     0.0000000000000000   10.2679500000000008    0.0000000000000000
     0.0000000000000000    0.0000000000000000   41.0286899999999974
   Fe   Fe   H    O    S    Ni   Fe   Co
     6     6    12    24    16    22     1     1
Selective dynamics
Direct
  0.7478744671027642  0.1479017500408403  0.1198317606044205   T   T   T
  0.0280967783919523  0.6204427318212462  0.1431457344163778   T   T   T
  0.4338660499738718  0.1382610296440735  0.1799471341727594   T   T   T
  0.6859983945506992  0.6324368826443636  0.1994029428956940   T   T   T
  0.1115676252987755  0.1266154970180255  0.2350685137291978   T   T   T
  0.3762856050983320  0.6485864235971266  0.2607141786716484   T   T   T
  0.2470381941207378  0.3335166178853032  0.1203386611587222   T   T   T
  0.5318628953665392  0.8570645928690421  0.1427793726614523   T   T   T
  0.9319214781662093  0.3446121769995936  0.1811949756449524   T   T   T
  0.1862258563412094  0.8444401704790589  0.1974773008250266   T   T   T
  0.6122986702888608  0.3524651080820319  0.2399505285365690   T   T   T
  0.8807376631313153  0.8469098546495994  0.2584076581612146   T   T   T
  0.7668257071958275  0.3972151335762698  0.1220480640325250   T   T   T
  0.2674048071846176  0.0836503258966425  0.1217630541922007   T   T   T
  0.9537719655810223  0.9070942330953096  0.1257462519906110   T   T   T
  0.4528403986564514  0.5733113331929781  0.1265039342595789   T   T   T
  0.9569835344540977  0.0866692979517023  0.1788471934217312   T   T   T
  0.4683070484303367  0.4011579486448749  0.1803507982476151   T   T   T
  0.1642649243199460  0.5879887081422632  0.2006509679234090   T   T   T
  0.6593951932579920  0.8911885194941700  0.2000131129879417   T   T   T
  0.1706918259747685  0.4017231002883274  0.2531620897623602   T   T   T
  0.6616838364412395  0.0849737044419005  0.2459434551433002   T   T   T
  0.8439784956585547  0.5965818967955382  0.2584990596342689   T   T   T
  0.3510331903914430  0.9014131772237237  0.2551367547506728   T   T   T
  0.0581911120102554  0.1902183510176211  0.1084953866156872   T   T   T
  0.5573252300352152  0.2905956099185344  0.1087069194162007   T   T   T
  0.7968856130130261  0.9448725006943962  0.1214713196925297   T   T   T
  0.2966289408392198  0.5354899122335607  0.1216442168813818   T   T   T
  0.9120487587052233  0.4339257298990081  0.1334796270268070   T   T   T
  0.4108587622708832  0.0462388478339671  0.1334874272041337   T   T   T
  0.2035722205513509  0.7845279762081065  0.1508983428152152   T   T   T
  0.7033949360818360  0.6938158587650958  0.1510918481523454   T   T   T
  0.7582994654067394  0.1857286332041445  0.1678407955817058   T   T   T
  0.2573261386235006  0.2952167813836232  0.1680813904064296   T   T   T
  0.0261240599309706  0.5480929321524145  0.1881931857493673   T   T   T
  0.5212119234594710  0.9305905971701464  0.1875727444466649   T   T   T
  0.0972650654547921  0.0451207706125935  0.1908191256477924   T   T   T
  0.6085933811761394  0.4390063731682943  0.1921194399274196   T   T   T
  0.8637377429301882  0.7952888413897705  0.2126361210384358   T   T   T
  0.3584257326192837  0.6871982399702595  0.2136416840430125   T   T   T
  0.4393375527049603  0.1734352996805445  0.2284126226114161   T   T   T
  0.9533150470098266  0.2903601498424364  0.2279497322274689   T   T   T
  0.7001074884796643  0.5603705106356947  0.2470745198460361   T   T   T
  0.1945542414125301  0.9345624651243487  0.2455098325583021   T   T   T
  0.3181678126747578  0.4402662999334145  0.2622497547164231   T   T   T
  0.8137846017228395  0.0508717604258174  0.2563523870468483   T   T   T
  0.0483154842795086  0.6924447094533589  0.2741132259526218   T   T   T
  0.5521856001749202  0.8184518005386426  0.2689343564028970   T   T   T
  0.9590323091058893  0.3435878269048899  0.3153190426613328   T   T   T
  0.5113480579079432  0.6191014356427660  0.3191701007320772   T   T   T
  0.0682987033063529  0.8769427866611771  0.3261685756567760   T   T   T
  0.5041619083823504  0.0921305790130921  0.3165162708228126   T   T   T
  0.4565764250205641  0.3596674770377052  0.3694291727030775   T   T   T
  0.0138729807098289  0.5943581231858538  0.3704247054843537   T   T   T
  0.5221559685548968  0.8652485725298834  0.3794323878680883   T   T   T
  0.9919609190803065  0.1189784250716735  0.3788376063143183   T   T   T
  0.9866685130068340  0.3685621479983659  0.4270010470093850   T   T   T
  0.5561737192461842  0.6038188082505147  0.4259111335449424   T   T   T
  0.0221341087634779  0.8406386746696359  0.4285851320822479   T   T   T
  0.4988512262450596  0.1148460137316117  0.4364570214442290   T   T   T
  0.4322295293783324  0.3886803719531463  0.4925610908107236   T   T   T
  0.0357569883686826  0.6690054461081852  0.4982687089443144   T   T   T
  0.5096834695598813  0.8405577022693062  0.4815709466825890   T   T   T
  0.0045713890672953  0.1019613555448428  0.4826188717038302   T   T   T
  0.2791512107942866  0.7267677326500219  0.3516637277853220   T   T   T
  0.4725922468650576  0.8749684425886682  0.3130148712454314   T   T   T
  0.2893019922835888  0.6996837008184640  0.4533988890347915   T   T   T
  0.9001731139375527  0.6836304859794953  0.3197762723297469   T   T   T
  0.6972048991574025  0.6567950523690801  0.4742886959526572   T   T   T
  0.7539769748046734  0.9703710705773030  0.4573811564960547   T   T   T
  0.6604494916094803  0.6676572617316584  0.3756404760177668   T   T   T
  0.3039355984972663  0.4636270120657267  0.4123148931429009   T   T   T
  0.3880075467969910  0.9126855326808904  0.4296448500787191   T   T   T
  0.8784313479402538  0.1695406352451545  0.4296166308393734   T   T   T
  0.1175069906436883  0.8867175318292631  0.4821204345831709   T   T   T
  0.1442155870138055  0.9240180453428456  0.3787080562666169   T   T   T
  0.9390113142014901  0.6272220617062405  0.4222016803377841   T   T   T
  0.2100601135827889  0.2014790576444478  0.3368702452126028   T   T   T
  0.8417351789493210  0.1603202561325918  0.2960884480690700   T   T   T
  0.7763792208447688  0.9848222453752692  0.3479476732897457   T   T   T
  0.7187171869186056  0.4702863087135309  0.3417126567824740   T   T   T
  0.3340429057189163  0.4156532541235461  0.3110184884348248   T   T   T
  0.0702549922774656  0.3885231197570096  0.3668598516903500   T   T   T
  0.2441960502579241  0.2560162458350654  0.4582257585873385   T   T   T
  0.1023887837813778  0.4870928295432337  0.4709712721149064   T   T   T
  0.6686873632082367  0.4240490954987101  0.4515243885806304   T   T   T
  0.5226470927020211  0.1348293764539550  0.3787193216601040   T   T   T
  0.6518910645644800  0.2065797330353640  0.4831159431711308   T   T   T
 
  0.00000000E+00  0.00000000E+00  0.00000000E+00
  0.00000000E+00  0.00000000E+00  0.00000000E+00
  0.00000000E+00  0.00000000E+00  0.00000000E+00
  0.00000000E+00  0.00000000E+00  0.00000000E+00
  0.00000000E+00  0.00000000E+00  0.00000000E+00
  0.00000000E+00  0.00000000E+00  0.00000000E+00
  0.00000000E+00  0.00000000E+00  0.00000000E+00
  0.00000000E+00  0.00000000E+00  0.00000000E+00
  0.00000000E+00  0.00000000E+00  0.00000000E+00
  0.00000000E+00  0.00000000E+00  0.00000000E+00
  0.00000000E+00  0.00000000E+00  0.00000000E+00
  0.00000000E+00  0.00000000E+00  0.00000000E+00
  0.00000000E+00  0.00000000E+00  0.00000000E+00
  0.00000000E+00  0.00000000E+00  0.00000000E+00
  0.00000000E+00  0.00000000E+00  0.00000000E+00
  0.00000000E+00  0.00000000E+00  0.00000000E+00
  0.00000000E+00  0.00000000E+00  0.00000000E+00
  0.00000000E+00  0.00000000E+00  0.00000000E+00
  0.00000000E+00  0.00000000E+00  0.00000000E+00
  0.00000000E+00  0.00000000E+00  0.00000000E+00
  0.00000000E+00  0.00000000E+00  0.00000000E+00
  0.00000000E+00  0.00000000E+00  0.00000000E+00
  0.00000000E+00  0.00000000E+00  0.00000000E+00
  0.00000000E+00  0.00000000E+00  0.00000000E+00
  0.00000000E+00  0.00000000E+00  0.00000000E+00
  0.00000000E+00  0.00000000E+00  0.00000000E+00
  0.00000000E+00  0.00000000E+00  0.00000000E+00
  0.00000000E+00  0.00000000E+00  0.00000000E+00
  0.00000000E+00  0.00000000E+00  0.00000000E+00
  0.00000000E+00  0.00000000E+00  0.00000000E+00
  0.00000000E+00  0.00000000E+00  0.00000000E+00
  0.00000000E+00  0.00000000E+00  0.00000000E+00
  0.00000000E+00  0.00000000E+00  0.00000000E+00
  0.00000000E+00  0.00000000E+00  0.00000000E+00
  0.00000000E+00  0.00000000E+00  0.00000000E+00
  0.00000000E+00  0.00000000E+00  0.00000000E+00
  0.00000000E+00  0.00000000E+00  0.00000000E+00
  0.00000000E+00  0.00000000E+00  0.00000000E+00
  0.00000000E+00  0.00000000E+00  0.00000000E+00
  0.00000000E+00  0.00000000E+00  0.00000000E+00
  0.00000000E+00  0.00000000E+00  0.00000000E+00
  0.00000000E+00  0.00000000E+00  0.00000000E+00
  0.00000000E+00  0.00000000E+00  0.00000000E+00
  0.00000000E+00  0.00000000E+00  0.00000000E+00
  0.00000000E+00  0.00000000E+00  0.00000000E+00
  0.00000000E+00  0.00000000E+00  0.00000000E+00
  0.00000000E+00  0.00000000E+00  0.00000000E+00
  0.00000000E+00  0.00000000E+00  0.00000000E+00
  0.00000000E+00  0.00000000E+00  0.00000000E+00
  0.00000000E+00  0.00000000E+00  0.00000000E+00
  0.00000000E+00  0.00000000E+00  0.00000000E+00
  0.00000000E+00  0.00000000E+00  0.00000000E+00
  0.00000000E+00  0.00000000E+00  0.00000000E+00
  0.00000000E+00  0.00000000E+00  0.00000000E+00
  0.00000000E+00  0.00000000E+00  0.00000000E+00
  0.00000000E+00  0.00000000E+00  0.00000000E+00
  0.00000000E+00  0.00000000E+00  0.00000000E+00
  0.00000000E+00  0.00000000E+00  0.00000000E+00
  0.00000000E+00  0.00000000E+00  0.00000000E+00
  0.00000000E+00  0.00000000E+00  0.00000000E+00
  0.00000000E+00  0.00000000E+00  0.00000000E+00
  0.00000000E+00  0.00000000E+00  0.00000000E+00
  0.00000000E+00  0.00000000E+00  0.00000000E+00
  0.00000000E+00  0.00000000E+00  0.00000000E+00
  0.00000000E+00  0.00000000E+00  0.00000000E+00
  0.00000000E+00  0.00000000E+00  0.00000000E+00
  0.00000000E+00  0.00000000E+00  0.00000000E+00
  0.00000000E+00  0.00000000E+00  0.00000000E+00
  0.00000000E+00  0.00000000E+00  0.00000000E+00
  0.00000000E+00  0.00000000E+00  0.00000000E+00
  0.00000000E+00  0.00000000E+00  0.00000000E+00
  0.00000000E+00  0.00000000E+00  0.00000000E+00
  0.00000000E+00  0.00000000E+00  0.00000000E+00
  0.00000000E+00  0.00000000E+00  0.00000000E+00
  0.00000000E+00  0.00000000E+00  0.00000000E+00
  0.00000000E+00  0.00000000E+00  0.00000000E+00
  0.00000000E+00  0.00000000E+00  0.00000000E+00
  0.00000000E+00  0.00000000E+00  0.00000000E+00
  0.00000000E+00  0.00000000E+00  0.00000000E+00
  0.00000000E+00  0.00000000E+00  0.00000000E+00
  0.00000000E+00  0.00000000E+00  0.00000000E+00
  0.00000000E+00  0.00000000E+00  0.00000000E+00
  0.00000000E+00  0.00000000E+00  0.00000000E+00
  0.00000000E+00  0.00000000E+00  0.00000000E+00
  0.00000000E+00  0.00000000E+00  0.00000000E+00
  0.00000000E+00  0.00000000E+00  0.00000000E+00
  0.00000000E+00  0.00000000E+00  0.00000000E+00
  0.00000000E+00  0.00000000E+00  0.00000000E+00
