Fe  Fe  H   O   S   Ni  Fe Co           
   1.00000000000000     
     5.6388600000000002    0.0000000000000000    0.0000000000000000
     0.0000000000000000   10.2679500000000008    0.0000000000000000
     0.0000000000000000    0.0000000000000000   41.0286899999999974
   Fe   Fe   H    O    S    Ni   Fe   Co
     6     6    12    24    16    22     1     1
Selective dynamics
Direct
  0.7457412052757946  0.1502313320713355  0.1199223761546727   T   T   T
  0.0280269687414862  0.6237239706973681  0.1433077778313707   T   T   T
  0.4296096062759498  0.1404422251042269  0.1799842513100701   T   T   T
  0.6834897825694796  0.6360284433130562  0.1992958709528106   T   T   T
  0.1042841095614614  0.1281666875858487  0.2350990428163638   T   T   T
  0.3845137933986701  0.6511502240369076  0.2610911593253677   T   T   T
  0.2454174254174148  0.3356240485906738  0.1202117235141141   T   T   T
  0.5299944846441744  0.8604924638908641  0.1431119967297992   T   T   T
  0.9297706977699657  0.3469352482039600  0.1809664184838213   T   T   T
  0.1833832028474501  0.8472929452168041  0.1980730985146795   T   T   T
  0.6142244596632719  0.3542366790043103  0.2399103258189898   T   T   T
  0.8771288815284505  0.8463556979580817  0.2595620251654793   T   T   T
  0.7646484274989532  0.4000619349607997  0.1220524788573783   T   T   T
  0.2654700758240924  0.0852605194623400  0.1217656851809213   T   T   T
  0.9525375996848898  0.9103415861961747  0.1260254905931193   T   T   T
  0.4513688879050474  0.5751848806001745  0.1262894367022294   T   T   T
  0.9533018093048055  0.0871319300385768  0.1789180645618028   T   T   T
  0.4665528163877528  0.4031959589941917  0.1804020398364152   T   T   T
  0.1618177497835726  0.5905954834699504  0.2010436506361196   T   T   T
  0.6567890431049304  0.8943178119515196  0.2005058122550877   T   T   T
  0.1773187301502146  0.4053689265542433  0.2543362648818069   T   T   T
  0.6478552572052186  0.0842275794097564  0.2437902509925889   T   T   T
  0.8511614102809980  0.5992587447285080  0.2573312591112998   T   T   T
  0.3436357583396278  0.9042765459659924  0.2562170661672790   T   T   T
  0.0559900437571363  0.1922789654565343  0.1086212467767142   T   T   T
  0.5549598983929976  0.2924439581616152  0.1083986034789478   T   T   T
  0.7956806049034073  0.9480797986995623  0.1216232973558451   T   T   T
  0.2947399444900325  0.5378359492389125  0.1215828853219162   T   T   T
  0.9091108833242320  0.4367645632419183  0.1336051411881319   T   T   T
  0.4092426234544371  0.0481294139035754  0.1334980890031352   T   T   T
  0.2026967703001429  0.7877593018226312  0.1512911482301755   T   T   T
  0.7036068797938305  0.6980473762100136  0.1512066462359562   T   T   T
  0.7543536594042611  0.1884874506267411  0.1679525304167344   T   T   T
  0.2551441536269687  0.2973646392975291  0.1678867642309457   T   T   T
  0.0256490103024291  0.5510597247594383  0.1882643568040244   T   T   T
  0.5180467002748776  0.9333583397634265  0.1879758460002741   T   T   T
  0.0939072530057877  0.0462612534912753  0.1908447898237988   T   T   T
  0.6062061626650028  0.4411225043188104  0.1922502012542673   T   T   T
  0.8599862424213907  0.7989344907432698  0.2132652430556059   T   T   T
  0.3587775829117559  0.6917388970189225  0.2141469643369677   T   T   T
  0.4316407995103992  0.1756004002879868  0.2282750801726189   T   T   T
  0.9519220855971294  0.2929298422199267  0.2277339079989690   T   T   T
  0.7014448281118756  0.5652651306982230  0.2466448766102685   T   T   T
  0.1890642154207669  0.9364560009747079  0.2462171009146389   T   T   T
  0.3265367090174629  0.4428134952501775  0.2630248266628549   T   T   T
  0.7990409289107401  0.0504810189210005  0.2548218388601059   T   T   T
  0.0542858209906732  0.6865632075286169  0.2726694969008550   T   T   T
  0.5493352517100428  0.8199473466910949  0.2718681050040494   T   T   T
  0.9748702149070804  0.3321118177464256  0.3147693680524403   T   T   T
  0.5424917278518115  0.6103541544789086  0.3205094285585870   T   T   T
  0.0455190288187957  0.8654697077549577  0.3245086780291916   T   T   T
  0.5212337917860183  0.1043086963535603  0.3210307720674977   T   T   T
  0.4900261744835541  0.3536608952481970  0.3739162817601477   T   T   T
  0.0212253327389505  0.5920100366269482  0.3714724731490609   T   T   T
  0.5174871280978290  0.8532446019539550  0.3777359832908315   T   T   T
  0.9786214872153417  0.1189178725329921  0.3755015911090771   T   T   T
  0.0213596244999496  0.3769157802320248  0.4310924465985763   T   T   T
  0.5308616889881272  0.6044715317854569  0.4255224267695874   T   T   T
  0.9856922591592867  0.8607926067314106  0.4245651422833008   T   T   T
  0.4641049486493916  0.1025187561763214  0.4288115420260658   T   T   T
  0.5017260467784851  0.3635232102757495  0.4833051661191071   T   T   T
  0.9806864047244055  0.6284682030590228  0.4910382006477978   T   T   T
  0.4442989686867498  0.8658434914994591  0.4846958019450499   T   T   T
  0.9731430657529244  0.0945134602556592  0.4842214541715353   T   T   T
  0.7612206229659741  0.4906150057742665  0.4586211113550034   T   T   T
  0.7513393704918409  0.4555116424184151  0.3444383905261245   T   T   T
  0.6462436152437145  0.6523295502337760  0.3739526974769628   T   T   T
  0.6171518703715083  0.1696650957058473  0.4793076581332315   T   T   T
  0.3609101011948303  0.8964559106822997  0.4278697943149892   T   T   T
  0.7155472325937348  0.9647376638964360  0.4537451402586843   T   T   T
  0.6917501071016003  0.7265412190269862  0.4673424111560625   T   T   T
  0.4207336337339318  0.4025432741365763  0.4266358007548929   T   T   T
  0.2603968321044366  0.6890894846344056  0.4564028929898589   T   T   T
  0.0712220299633718  0.8853259202585644  0.4778078403539480   T   T   T
  0.5827992667674624  0.1527914596608076  0.3747132636057965   T   T   T
  0.1063084971479000  0.3892050415115153  0.3784753325425045   T   T   T
  0.1504465520224785  0.9249036675504294  0.3755144810226784   T   T   T
  0.2844871218780887  0.7202529075147729  0.3492043075880125   T   T   T
  0.8171533381358522  0.1691819284983571  0.2915754357222346   T   T   T
  0.9189480217406490  0.6566631371574945  0.4202577473240418   T   T   T
  0.2277293892505159  0.2135020334701435  0.3420854985662372   T   T   T
  0.1728316496388598  0.4582393909041764  0.4760325665694248   T   T   T
  0.9325683152988894  0.6590393287145352  0.3181837398324741   T   T   T
  0.2333288020594785  0.2270875273643699  0.4583537014937661   T   T   T
  0.4364361060923440  0.8936113309300455  0.3138760466032485   T   T   T
  0.7684761720110018  0.9728174072026124  0.3481964324762223   T   T   T
  0.8645185297551022  0.1690728399421384  0.4277785084925775   T   T   T
  0.3437396938362708  0.4184004727683932  0.3128458912317826   T   T   T
 
  0.00000000E+00  0.00000000E+00  0.00000000E+00
  0.00000000E+00  0.00000000E+00  0.00000000E+00
  0.00000000E+00  0.00000000E+00  0.00000000E+00
  0.00000000E+00  0.00000000E+00  0.00000000E+00
  0.00000000E+00  0.00000000E+00  0.00000000E+00
  0.00000000E+00  0.00000000E+00  0.00000000E+00
  0.00000000E+00  0.00000000E+00  0.00000000E+00
  0.00000000E+00  0.00000000E+00  0.00000000E+00
  0.00000000E+00  0.00000000E+00  0.00000000E+00
  0.00000000E+00  0.00000000E+00  0.00000000E+00
  0.00000000E+00  0.00000000E+00  0.00000000E+00
  0.00000000E+00  0.00000000E+00  0.00000000E+00
  0.00000000E+00  0.00000000E+00  0.00000000E+00
  0.00000000E+00  0.00000000E+00  0.00000000E+00
  0.00000000E+00  0.00000000E+00  0.00000000E+00
  0.00000000E+00  0.00000000E+00  0.00000000E+00
  0.00000000E+00  0.00000000E+00  0.00000000E+00
  0.00000000E+00  0.00000000E+00  0.00000000E+00
  0.00000000E+00  0.00000000E+00  0.00000000E+00
  0.00000000E+00  0.00000000E+00  0.00000000E+00
  0.00000000E+00  0.00000000E+00  0.00000000E+00
  0.00000000E+00  0.00000000E+00  0.00000000E+00
  0.00000000E+00  0.00000000E+00  0.00000000E+00
  0.00000000E+00  0.00000000E+00  0.00000000E+00
  0.00000000E+00  0.00000000E+00  0.00000000E+00
  0.00000000E+00  0.00000000E+00  0.00000000E+00
  0.00000000E+00  0.00000000E+00  0.00000000E+00
  0.00000000E+00  0.00000000E+00  0.00000000E+00
  0.00000000E+00  0.00000000E+00  0.00000000E+00
  0.00000000E+00  0.00000000E+00  0.00000000E+00
  0.00000000E+00  0.00000000E+00  0.00000000E+00
  0.00000000E+00  0.00000000E+00  0.00000000E+00
  0.00000000E+00  0.00000000E+00  0.00000000E+00
  0.00000000E+00  0.00000000E+00  0.00000000E+00
  0.00000000E+00  0.00000000E+00  0.00000000E+00
  0.00000000E+00  0.00000000E+00  0.00000000E+00
  0.00000000E+00  0.00000000E+00  0.00000000E+00
  0.00000000E+00  0.00000000E+00  0.00000000E+00
  0.00000000E+00  0.00000000E+00  0.00000000E+00
  0.00000000E+00  0.00000000E+00  0.00000000E+00
  0.00000000E+00  0.00000000E+00  0.00000000E+00
  0.00000000E+00  0.00000000E+00  0.00000000E+00
  0.00000000E+00  0.00000000E+00  0.00000000E+00
  0.00000000E+00  0.00000000E+00  0.00000000E+00
  0.00000000E+00  0.00000000E+00  0.00000000E+00
  0.00000000E+00  0.00000000E+00  0.00000000E+00
  0.00000000E+00  0.00000000E+00  0.00000000E+00
  0.00000000E+00  0.00000000E+00  0.00000000E+00
  0.00000000E+00  0.00000000E+00  0.00000000E+00
  0.00000000E+00  0.00000000E+00  0.00000000E+00
  0.00000000E+00  0.00000000E+00  0.00000000E+00
  0.00000000E+00  0.00000000E+00  0.00000000E+00
  0.00000000E+00  0.00000000E+00  0.00000000E+00
  0.00000000E+00  0.00000000E+00  0.00000000E+00
  0.00000000E+00  0.00000000E+00  0.00000000E+00
  0.00000000E+00  0.00000000E+00  0.00000000E+00
  0.00000000E+00  0.00000000E+00  0.00000000E+00
  0.00000000E+00  0.00000000E+00  0.00000000E+00
  0.00000000E+00  0.00000000E+00  0.00000000E+00
  0.00000000E+00  0.00000000E+00  0.00000000E+00
  0.00000000E+00  0.00000000E+00  0.00000000E+00
  0.00000000E+00  0.00000000E+00  0.00000000E+00
  0.00000000E+00  0.00000000E+00  0.00000000E+00
  0.00000000E+00  0.00000000E+00  0.00000000E+00
  0.00000000E+00  0.00000000E+00  0.00000000E+00
  0.00000000E+00  0.00000000E+00  0.00000000E+00
  0.00000000E+00  0.00000000E+00  0.00000000E+00
  0.00000000E+00  0.00000000E+00  0.00000000E+00
  0.00000000E+00  0.00000000E+00  0.00000000E+00
  0.00000000E+00  0.00000000E+00  0.00000000E+00
  0.00000000E+00  0.00000000E+00  0.00000000E+00
  0.00000000E+00  0.00000000E+00  0.00000000E+00
  0.00000000E+00  0.00000000E+00  0.00000000E+00
  0.00000000E+00  0.00000000E+00  0.00000000E+00
  0.00000000E+00  0.00000000E+00  0.00000000E+00
  0.00000000E+00  0.00000000E+00  0.00000000E+00
  0.00000000E+00  0.00000000E+00  0.00000000E+00
  0.00000000E+00  0.00000000E+00  0.00000000E+00
  0.00000000E+00  0.00000000E+00  0.00000000E+00
  0.00000000E+00  0.00000000E+00  0.00000000E+00
  0.00000000E+00  0.00000000E+00  0.00000000E+00
  0.00000000E+00  0.00000000E+00  0.00000000E+00
  0.00000000E+00  0.00000000E+00  0.00000000E+00
  0.00000000E+00  0.00000000E+00  0.00000000E+00
  0.00000000E+00  0.00000000E+00  0.00000000E+00
  0.00000000E+00  0.00000000E+00  0.00000000E+00
  0.00000000E+00  0.00000000E+00  0.00000000E+00
  0.00000000E+00  0.00000000E+00  0.00000000E+00
