10-1                                    
   1.00000000000000     
     6.3456997871000000    0.0000000000000000    0.0000000000000000
     0.0000000000000000   10.4405002594000003    0.0000000000000000
     0.0000000000000000   -2.7140659414999999   37.9337322254000000
   O    Ir
    81    40
Direct
0.2499848409973035 0.6306834272698055 0.9955885926574581
0.0000000000000000 0.2057400050000027 0.0279399989999973
0.0000000000000000 0.4407599869999999 0.0254100000000008
0.0000000000000000 0.8211900000000014 0.0390999990000012
0.2500000000000000 0.6519500019999995 0.0607599989999983
0.2500000000000000 0.0315500009999994 0.0723299980000007
0.2500000000000000 0.2750200030000016 0.0786800010000022
0.0000000000000000 0.8443400259999976 0.1051300020000028
0.0000000000000000 0.1276800039999983 0.1284399930000006
0.2500000000000000 0.7022899990000013 0.1564400050000003
0.2500000000000000 0.9440199730000032 0.1609700019999991
0.2500000000000000 0.3261800109999982 0.1700000020000019
0.0000000000000000 0.1559099999999987 0.1946299969999998
0.0000000000000000 0.5374500160000011 0.2031199930000014
0.0000000000000000 0.7788699870000002 0.2069900039999979
0.2500000000000000 0.3541699949999995 0.2362100029999965
0.2499920181385925 0.6395836818585791 0.2585438156216567
-0.0000065381655928 0.2136080385950694 0.2874672044995344
-0.0000079002095235 0.4552557635358125 0.2916369407165728
-0.0000016782439541 0.8366166381060862 0.3004983458651977
0.2500361235009124 0.6647537594277104 0.3248608970926386
0.2499778585859553 0.0463343548816080 0.3333280111823116
0.2499874557570465 0.2891851199088308 0.3380930409444374
-0.0000032112971131 0.8610614543502600 0.3667297958218951
-0.0000042001070515 0.1459449709468294 0.3888477289977531
0.2500568570811594 0.7206263787754038 0.4181083253849540
0.2499565207712327 0.9623623440900256 0.4218743154363837
0.2501657004660289 0.3441026726756991 0.4309433504403956
-0.0000505604345058 0.1740904497213832 0.4550727030355260
0.0000102971529349 0.5553409512066264 0.4646739455679338
0.0000095649783444 0.7969405244248140 0.4685876372865442
0.2489508862724526 0.3697123065092374 0.4972783504739275
0.2498846649212187 0.6544922394042390 0.5203107458114988
0.0000206616676378 0.2248422296862026 0.5508195756009658
0.0000008725956121 0.4665980827782218 0.5530170658698511
0.0000075956108098 0.8460706368613158 0.5634390251658549
0.2502229976596161 0.6784269917310720 0.5864180378318878
0.2453169257465075 0.0617884111850588 0.5979065682937779
0.2542058252796257 0.3006243778986463 0.5986783339904880
0.0000128453909282 0.8757109504658577 0.6285746025292133
0.7499907887840246 0.6306485904762639 0.9955913799220764
0.5000000000000000 0.2057400050000027 0.0279399989999973
0.5000000000000000 0.4407599869999999 0.0254100000000008
0.5000000000000000 0.8211900000000014 0.0390999990000012
0.7500000000000000 0.6519500019999995 0.0607599989999983
0.7500000000000000 0.0315500009999994 0.0723299980000007
0.7500000000000000 0.2750200030000016 0.0786800010000022
0.5000000000000000 0.8443400259999976 0.1051300020000028
0.5000000000000000 0.1276800039999983 0.1284399930000006
0.7500000000000000 0.7022899990000013 0.1564400050000003
0.7500000000000000 0.9440199730000032 0.1609700019999991
0.7500000000000000 0.3261800109999982 0.1700000020000019
0.5000000000000000 0.1559099999999987 0.1946299969999998
0.5000000000000000 0.5374500160000011 0.2031199930000014
0.5000000000000000 0.7788699870000002 0.2069900039999979
0.7500000000000000 0.3541699949999995 0.2362100029999965
0.7500269800366000 0.6395564810179126 0.2585349872756564
0.4999990807573398 0.2135350885167246 0.2873931430733926
0.4999908144203017 0.4552739026169285 0.2916424664112875
0.5000001277268900 0.8366762200748222 0.3005140404170770
0.7499847517172318 0.6647426311523124 0.3248612803037560
0.7500107774580285 0.0463578207459378 0.3333366899553239
0.7500170726995927 0.2891813925968960 0.3380923500187110
0.5000015460058471 0.8609726536120362 0.3667201507946423
0.4999851174572909 0.1459090815621168 0.3888464503630490
0.7499484623070732 0.7206307391802549 0.4181069547502349
0.7500588926996276 0.9623478564739600 0.4218874515383566
0.7498436979178353 0.3441072706180268 0.4309413021421137
0.5000213727507044 0.1734176393756898 0.4551485316802566
0.5000191272725317 0.5553177886706648 0.4647437705008535
0.5000064837191421 0.7971525948822277 0.4686668931288791
0.7510833523539791 0.3697264363535705 0.4972687419010705
0.7501308221001891 0.6545241272724742 0.5203156735567737
0.5000044539417849 0.2226774304988048 0.5465812466480853
0.4999954995720693 0.4666677403581491 0.5529822066684297
0.4999983399775141 0.8468597402604598 0.5636302950986980
0.7497598961715157 0.6784223868600892 0.5864206645275112
0.7546314036757672 0.0618371470527720 0.5979328538319619
0.7457532522514128 0.3006131069054477 0.5986914655105057
0.4999927080871782 0.8705499493531044 0.6280191868490755
0.0000950146555877 0.2067508308443957 0.6497692317061433
0.2500000000000000 0.3276099859999988 0.0284699999999987
0.0000000000000000 0.6302300099999982 0.0259399990000020
0.2500000000000000 0.8416299820000006 0.0728999970000004
0.0000000000000000 0.1492100059999970 0.0775400030000029
0.0000000000000000 0.8263700010000008 0.1565099950000004
0.2500000000000000 0.1327800010000004 0.1606699969999994
0.0000000000000000 0.3489300009999994 0.2039899979999973
0.2500000000000000 0.6551899910000003 0.2070900049999977
0.2500045362507637 0.3373898449527448 0.2875680968764327
-0.0000014729820766 0.6435737908912673 0.2908121277581420
0.2499978206900125 0.8577333262581606 0.3345186883305267
0.0000033286581375 0.1645084135049659 0.3377557502947758
0.0000004871158287 0.8445117942530803 0.4180578717712288
0.2500720554013403 0.1510227077026646 0.4211434776831851
0.0000216662098376 0.3668826413976986 0.4649907137373260
0.2501344741148471 0.6732307064243506 0.4687986853948936
0.2497493538713609 0.3482197419809258 0.5484163762011313
-0.0000107437581316 0.6561356792410555 0.5525217425331660
0.2493630558214845 0.8714683712113430 0.5979403067184754
0.0000009670974009 0.1796383787705859 0.6032924240681365
0.7500000000000000 0.3276099859999988 0.0284699999999987
0.5000000000000000 0.6302300099999982 0.0259399990000020
0.7500000000000000 0.8416299820000006 0.0728999970000004
0.5000000000000000 0.1492100059999970 0.0775400030000029
0.5000000000000000 0.8263700010000008 0.1565099950000004
0.7500000000000000 0.1327800010000004 0.1606699969999994
0.5000000000000000 0.3489300009999994 0.2039899979999973
0.7500000000000000 0.6551899910000003 0.2070900049999977
0.7500005641232705 0.3373902353990321 0.2875683302440911
0.4999867763280235 0.6436451963028808 0.2908077565596258
0.7500052224431023 0.8577341362109672 0.3345185504340973
0.5000013513902728 0.1645461230063090 0.3377139423536475
0.5000115846891158 0.8444999415302257 0.4180767477797315
0.7498923001002589 0.1510113916761649 0.4211431627998292
0.5000118893858395 0.3664072115359403 0.4649915143484171
0.7498808892070511 0.6732351109856003 0.4687994448926567
0.7502667704904121 0.3482212479843826 0.5484120238559930
0.4999858075961610 0.6566985133981030 0.5524366932689341
0.7506342264095065 0.8714654868791959 0.5979429333777307
0.5000017876888926 0.1757440866738665 0.5968886401683281
