100\(2)\(2)                             
   1.00000000000000     
     6.3456997871000000    0.0000000000000000    0.0000000000000000
     0.0000000000000000    9.5076999664000006    0.0000000000000000
     1.5864077074000000   -2.1460233601000001   36.4485303489000003
   O    Ir   H 
    66    32     1
Selective dynamics
Direct
  0.2492599930000026  0.7093499899999998  0.0029600000000016   F   F   F
  0.4933199880000032  0.4808300139999986  0.0267199999999974   F   F   F
  0.4891600010000019  0.2310100050000017  0.0433400009999971   F   F   F
  0.4859299960000030  0.8867800239999966  0.0562999989999966   F   F   F
  0.2324499930000030  0.6905999780000016  0.0701799989999969   F   F   F
  0.2273000030000034  0.3546699879999977  0.0908100010000013   F   F   F
  0.2247399990000005  0.0952600020000034  0.1010200010000020   F   F   F
  0.4686799939999986  0.8727800249999973  0.1253000049999997   F   F   F
  0.4618799980000006  0.2588799890000004  0.1524800059999976   F   F   F
  0.2058199940000023  0.0421300009999968  0.1767300070000033   F   F   F
  0.2029400019999983  0.7852799890000028  0.1882299930000002   F   F   F
  0.1988800020000028  0.4507499930000023  0.2044699940000001   F   F   F
  0.4445700050000028  0.2548199889999978  0.2217299940000004   F   F   F
  0.4412699940000024  0.9204999800000024  0.2349199949999985   F   F   F
  0.4380899969999987  0.6647300119999997  0.2476499970000035   F   F   F
  0.1815599950000006  0.4479300080000002  0.2737599909999986   F   F   F
  0.1764604147427303  0.8375259900468212  0.2979885183871607   T   T   T
  0.4194527812517392  0.6206918967040098  0.3240028082724250   T   T   T
  0.4166559392107221  0.3646618220127772  0.3364662391612844   T   T   T
  0.4131210087919542  0.0302260230394710  0.3506785666414037   T   T   T
  0.1589672974788374  0.8337665360206520  0.3675592258241768   T   T   T
  0.1548274552557521  0.4991799773693000  0.3832248690297073   T   T   T
  0.1522567109182940  0.2419436487357305  0.3946462483050712   T   T   T
  0.3948611201212329  0.0255350133170046  0.4200482605817504   T   T   T
  0.3886115641310714  0.4034235138840069  0.4461131935708224   T   T   T
  0.1312090233959886  0.1858107474811995  0.4718174945756589   T   T   T
  0.1280478799851820  0.9321928603550951  0.4852773113567918   T   T   T
  0.1264547305125027  0.5926371004698167  0.4987205526771304   T   T   T
  0.3724358729200906  0.3972722507214482  0.5151773637010768   T   T   T
  0.3694625944526072  0.0601956354500244  0.5293466387778025   T   T   T
  0.3604967204529931  0.8065718419806671  0.5418119324654193   T   T   T
  0.1092511014961888  0.5832897062020905  0.5660868877413707   T   T   T
  0.7492600080000003  0.7093499899999998  0.0029600000000016   F   F   F
  0.9933199880000032  0.4808300139999986  0.0267199999999974   F   F   F
  0.9891600010000019  0.2310100050000017  0.0433400009999971   F   F   F
  0.9859300259999983  0.8867800239999966  0.0562999989999966   F   F   F
  0.7324500080000007  0.6905999780000016  0.0701799989999969   F   F   F
  0.7272999879999986  0.3546699879999977  0.0908100010000013   F   F   F
  0.7247400279999994  0.0952600020000034  0.1010200010000020   F   F   F
  0.9686800240000011  0.8727800249999973  0.1253000049999997   F   F   F
  0.9618800280000031  0.2588799890000004  0.1524800059999976   F   F   F
  0.7058200239999977  0.0421300009999968  0.1767300070000033   F   F   F
  0.7029399870000006  0.7852799890000028  0.1882299930000002   F   F   F
  0.6988800170000005  0.4507499930000023  0.2044699940000001   F   F   F
  0.9445700050000028  0.2548199889999978  0.2217299940000004   F   F   F
  0.9412699940000024  0.9204999800000024  0.2349099959999990   F   F   F
  0.9380900259999976  0.6647300119999997  0.2476499970000035   F   F   F
  0.6815599800000030  0.4479300080000002  0.2737599909999986   F   F   F
  0.6764648932005920  0.8373919730720303  0.2979973760704226   T   T   T
  0.9194430209000998  0.6206479188940990  0.3240230725670578   T   T   T
  0.9168127911024001  0.3647099389414749  0.3364625659115438   T   T   T
  0.9127722837760662  0.0302270183993294  0.3506619903480642   T   T   T
  0.6589082293833929  0.8336112710941036  0.3675867527711786   T   T   T
  0.6547330164294373  0.4993205942498426  0.3833376002429756   T   T   T
  0.6523520056480948  0.2418808295339805  0.3946633053533150   T   T   T
  0.8954453950186559  0.0253981082131721  0.4200503224058371   T   T   T
  0.8885311810312744  0.4037376218366418  0.4461043692670901   T   T   T
  0.6318323150838736  0.1851753646354011  0.4710327575325822   T   T   T
  0.6283546866324227  0.9260357221908461  0.4810391629831474   T   T   T
  0.6263813469997955  0.5927729487052893  0.4987963346066127   T   T   T
  0.8712949196813932  0.3971769700259368  0.5152021310329429   T   T   T
  0.8648418772734082  0.0603508053915250  0.5293957970977613   T   T   T
  0.8677838609371513  0.8064396836846336  0.5418144424306980   T   T   T
  0.6090586416853002  0.5840081471712376  0.5662540523893222   T   T   T
  0.1011798748327458  0.9959743781226265  0.5887909993330269   T   T   T
  0.5994405737191301  0.9764628552972283  0.5911780367169204   T   T   T
  0.2410700020000007  0.3603900069999995  0.0357199979999976   F   F   F
  0.4915300010000010  0.6888599990000017  0.0338600019999973   F   F   F
  0.2270800020000010  0.8894100190000032  0.0916599999999974   F   F   F
  0.4753899869999998  0.2225199940000024  0.0984300000000005   F   F   F
  0.4551399950000032  0.9151399730000023  0.1794500049999996   F   F   F
  0.2034700070000000  0.2477999930000010  0.1861100050000033   F   F   F
  0.4399999979999976  0.4588299990000024  0.2399999949999980   F   F   F
  0.1889999959999997  0.7914100289999979  0.2439900039999969   F   F   F
  0.1686926292848938  0.4940299870430597  0.3274971191072935   T   T   T
  0.4179896313815706  0.8264682301534259  0.3319090427858799   T   T   T
  0.1539235513010490  0.0362506957198152  0.3863370136094028   T   T   T
  0.4028139580515946  0.3687943548090120  0.3918643993115440   T   T   T
  0.3806119622583581  0.0577491229148796  0.4743123568121674   T   T   T
  0.1303340720868363  0.3915515281728056  0.4796023703874004   T   T   T
  0.3667895050879228  0.5996137893316457  0.5347932735801658   T   T   T
  0.1139779921976382  0.9347947245573892  0.5422062082476824   T   T   T
  0.7410699730000019  0.3603900069999995  0.0357199979999976   F   F   F
  0.9915400149999982  0.6888599990000017  0.0338600019999973   F   F   F
  0.7270799879999998  0.8894000049999988  0.0916599999999974   F   F   F
  0.9753900170000023  0.2225199940000024  0.0984300000000005   F   F   F
  0.9551399950000032  0.9151399730000023  0.1794500049999996   F   F   F
  0.7034699920000023  0.2477999930000010  0.1861100050000033   F   F   F
  0.9399999979999976  0.4588299990000024  0.2399999949999980   F   F   F
  0.6890000100000009  0.7914100289999979  0.2439900039999969   F   F   F
  0.6686642147039591  0.4937755603676033  0.3275385346972269   T   T   T
  0.9178720305596848  0.8264355463580740  0.3319119613527813   T   T   T
  0.6539743319396171  0.0362183129591333  0.3863787683250294   T   T   T
  0.9027754519726876  0.3688564452414341  0.3918592289772593   T   T   T
  0.8808441561704878  0.0574860808181347  0.4743402078837708   T   T   T
  0.6304223818430313  0.3915066060407651  0.4795496795010463   T   T   T
  0.8673595615077021  0.5995357223617526  0.5347859788274978   T   T   T
  0.6149723877610381  0.9319333726655011  0.5382777151772826   T   T   T
  0.5958976303336996  0.8910298669889483  0.6048474867448679   T   T   T
 
  0.00000000E+00  0.00000000E+00  0.00000000E+00
  0.00000000E+00  0.00000000E+00  0.00000000E+00
  0.00000000E+00  0.00000000E+00  0.00000000E+00
  0.00000000E+00  0.00000000E+00  0.00000000E+00
  0.00000000E+00  0.00000000E+00  0.00000000E+00
  0.00000000E+00  0.00000000E+00  0.00000000E+00
  0.00000000E+00  0.00000000E+00  0.00000000E+00
  0.00000000E+00  0.00000000E+00  0.00000000E+00
  0.00000000E+00  0.00000000E+00  0.00000000E+00
  0.00000000E+00  0.00000000E+00  0.00000000E+00
  0.00000000E+00  0.00000000E+00  0.00000000E+00
  0.00000000E+00  0.00000000E+00  0.00000000E+00
  0.00000000E+00  0.00000000E+00  0.00000000E+00
  0.00000000E+00  0.00000000E+00  0.00000000E+00
  0.00000000E+00  0.00000000E+00  0.00000000E+00
  0.00000000E+00  0.00000000E+00  0.00000000E+00
  0.00000000E+00  0.00000000E+00  0.00000000E+00
  0.00000000E+00  0.00000000E+00  0.00000000E+00
  0.00000000E+00  0.00000000E+00  0.00000000E+00
  0.00000000E+00  0.00000000E+00  0.00000000E+00
  0.00000000E+00  0.00000000E+00  0.00000000E+00
  0.00000000E+00  0.00000000E+00  0.00000000E+00
  0.00000000E+00  0.00000000E+00  0.00000000E+00
  0.00000000E+00  0.00000000E+00  0.00000000E+00
  0.00000000E+00  0.00000000E+00  0.00000000E+00
  0.00000000E+00  0.00000000E+00  0.00000000E+00
  0.00000000E+00  0.00000000E+00  0.00000000E+00
  0.00000000E+00  0.00000000E+00  0.00000000E+00
  0.00000000E+00  0.00000000E+00  0.00000000E+00
  0.00000000E+00  0.00000000E+00  0.00000000E+00
  0.00000000E+00  0.00000000E+00  0.00000000E+00
  0.00000000E+00  0.00000000E+00  0.00000000E+00
  0.00000000E+00  0.00000000E+00  0.00000000E+00
  0.00000000E+00  0.00000000E+00  0.00000000E+00
  0.00000000E+00  0.00000000E+00  0.00000000E+00
  0.00000000E+00  0.00000000E+00  0.00000000E+00
  0.00000000E+00  0.00000000E+00  0.00000000E+00
  0.00000000E+00  0.00000000E+00  0.00000000E+00
  0.00000000E+00  0.00000000E+00  0.00000000E+00
  0.00000000E+00  0.00000000E+00  0.00000000E+00
  0.00000000E+00  0.00000000E+00  0.00000000E+00
  0.00000000E+00  0.00000000E+00  0.00000000E+00
  0.00000000E+00  0.00000000E+00  0.00000000E+00
  0.00000000E+00  0.00000000E+00  0.00000000E+00
  0.00000000E+00  0.00000000E+00  0.00000000E+00
  0.00000000E+00  0.00000000E+00  0.00000000E+00
  0.00000000E+00  0.00000000E+00  0.00000000E+00
  0.00000000E+00  0.00000000E+00  0.00000000E+00
  0.00000000E+00  0.00000000E+00  0.00000000E+00
  0.00000000E+00  0.00000000E+00  0.00000000E+00
  0.00000000E+00  0.00000000E+00  0.00000000E+00
  0.00000000E+00  0.00000000E+00  0.00000000E+00
  0.00000000E+00  0.00000000E+00  0.00000000E+00
  0.00000000E+00  0.00000000E+00  0.00000000E+00
  0.00000000E+00  0.00000000E+00  0.00000000E+00
  0.00000000E+00  0.00000000E+00  0.00000000E+00
  0.00000000E+00  0.00000000E+00  0.00000000E+00
  0.00000000E+00  0.00000000E+00  0.00000000E+00
  0.00000000E+00  0.00000000E+00  0.00000000E+00
  0.00000000E+00  0.00000000E+00  0.00000000E+00
  0.00000000E+00  0.00000000E+00  0.00000000E+00
  0.00000000E+00  0.00000000E+00  0.00000000E+00
  0.00000000E+00  0.00000000E+00  0.00000000E+00
  0.00000000E+00  0.00000000E+00  0.00000000E+00
  0.00000000E+00  0.00000000E+00  0.00000000E+00
  0.00000000E+00  0.00000000E+00  0.00000000E+00
  0.00000000E+00  0.00000000E+00  0.00000000E+00
  0.00000000E+00  0.00000000E+00  0.00000000E+00
  0.00000000E+00  0.00000000E+00  0.00000000E+00
  0.00000000E+00  0.00000000E+00  0.00000000E+00
  0.00000000E+00  0.00000000E+00  0.00000000E+00
  0.00000000E+00  0.00000000E+00  0.00000000E+00
  0.00000000E+00  0.00000000E+00  0.00000000E+00
  0.00000000E+00  0.00000000E+00  0.00000000E+00
  0.00000000E+00  0.00000000E+00  0.00000000E+00
  0.00000000E+00  0.00000000E+00  0.00000000E+00
  0.00000000E+00  0.00000000E+00  0.00000000E+00
  0.00000000E+00  0.00000000E+00  0.00000000E+00
  0.00000000E+00  0.00000000E+00  0.00000000E+00
  0.00000000E+00  0.00000000E+00  0.00000000E+00
  0.00000000E+00  0.00000000E+00  0.00000000E+00
  0.00000000E+00  0.00000000E+00  0.00000000E+00
  0.00000000E+00  0.00000000E+00  0.00000000E+00
  0.00000000E+00  0.00000000E+00  0.00000000E+00
  0.00000000E+00  0.00000000E+00  0.00000000E+00
  0.00000000E+00  0.00000000E+00  0.00000000E+00
  0.00000000E+00  0.00000000E+00  0.00000000E+00
  0.00000000E+00  0.00000000E+00  0.00000000E+00
  0.00000000E+00  0.00000000E+00  0.00000000E+00
  0.00000000E+00  0.00000000E+00  0.00000000E+00
  0.00000000E+00  0.00000000E+00  0.00000000E+00
  0.00000000E+00  0.00000000E+00  0.00000000E+00
  0.00000000E+00  0.00000000E+00  0.00000000E+00
  0.00000000E+00  0.00000000E+00  0.00000000E+00
  0.00000000E+00  0.00000000E+00  0.00000000E+00
  0.00000000E+00  0.00000000E+00  0.00000000E+00
  0.00000000E+00  0.00000000E+00  0.00000000E+00
  0.00000000E+00  0.00000000E+00  0.00000000E+00
  0.00000000E+00  0.00000000E+00  0.00000000E+00
