SnO2_mp-856_primitive                   
   1.00000000000000     
     9.6646995544000003    0.0000000000000000    0.0000000000000000
     0.0000000000000000    9.6646995544000003    0.0000000000000000
     0.0000000000000000    0.0000000000000000    6.4864001273999996
   Sn   O 
    16    32
Direct
