p42_PBE\(1\1\0)\(2)                     
   1.00000000000000     
     6.3628997803000003    0.0000000000000000    0.0000000000000000
     0.0000000000000000    6.3632001877000004    0.0000000000000000
     0.0000000000000000    0.0000000000000000   32.3395996093999969
   O    Ir
    50    24
Direct
0.3444699940000007 0.1277700070000023 0.0000000000000000
0.3444699940000007 0.6277700070000023 0.0983799990000023
0.3444699940000007 0.1277001567605645 0.1974313135403526
0.3444699940000007 0.6273168767124274 0.2964360781293650
0.3444699940000007 0.1275114104535036 0.3965328856846186
0.3444699940000007 0.6278840361273436 0.4952745471054851
0.3444699940000007 0.1277700070000023 0.0751899999999992
0.3444699940000007 0.6277700070000023 0.1735700070000021
0.3444699940000007 0.1280209584284160 0.2736448526220374
0.3444699940000007 0.6280818017939033 0.3729361533679944
0.3444699940000007 0.1278693083188886 0.4730899696572320
0.3444699940000007 0.6271710890420693 0.5701929907887869
0.0944700020000013 0.8188400270000002 0.0375900009999981
0.0944700020000013 0.3188399969999978 0.1359799949999996
0.0944706105716969 0.8194371227631064 0.2350892540208363
0.0944563814581143 0.3192321591719409 0.3350182086776332
0.0944703951448141 0.8196045473831730 0.4343329187760884
0.0945160691994835 0.3184446669480723 0.5320121704598593
0.0944700020000013 0.4366999860000007 0.0375900009999981
0.0944700020000013 0.9366999860000007 0.1359799949999996
0.0944709149503764 0.4362621703927239 0.2349294037759415
0.0944585673630029 0.9359135562676856 0.3347913140512678
0.0944655892655278 0.4366146653353313 0.4342618974600311
0.0944744004132794 0.9367710080140520 0.5320707626377101
0.8444700240000031 0.1277700070000023 0.0000000000000000
0.8444700240000031 0.6277700070000023 0.0983799990000023
0.8444700240000031 0.1277007447753336 0.1974302409983370
0.8444700240000031 0.6273562937711427 0.2964378065386634
0.8444700240000031 0.1275189186443417 0.3965341553259471
0.8444700240000031 0.6277971597437793 0.4952690933078089
0.8444700240000031 0.1277700070000023 0.0751899999999992
0.8444700240000031 0.6277700070000023 0.1735700070000021
0.8444700240000031 0.1279969108496082 0.2736436042841308
0.8444700240000031 0.6280193691909036 0.3729403252063512
0.8444700240000031 0.1278885041010262 0.4730854414798286
0.8444700240000031 0.6271923155442949 0.5701641959392127
0.5944700240000031 0.8188400270000002 0.0375900009999981
0.5944700240000031 0.3188399969999978 0.1359799949999996
0.5944694154283076 0.8194371227631064 0.2350892540208363
0.5944836445418897 0.3192321591719409 0.3350182086776332
0.5944696308551909 0.8196045473831730 0.4343329187760884
0.5944239568005212 0.3184446669480723 0.5320121704598593
0.5944700240000031 0.4366999860000007 0.0375900009999981
0.5944700240000031 0.9366999860000007 0.1359799949999996
0.5944691110496274 0.4362621703927239 0.2349294037759415
0.5944814586370016 0.9359135562676856 0.3347913140512678
0.5944744367344765 0.4366146653353313 0.4342618974600311
0.5944656255867249 0.9367710080140520 0.5320707626377101
0.8444700240000031 0.1277923704331235 0.5912304712486225
0.3444699940000007 0.1278146452256484 0.5912235967392985
0.3444699940000007 0.6277700070000023 0.0375900009999981
0.3444699940000007 0.1277700070000023 0.1359799949999996
0.3444699940000007 0.6278622792872465 0.2350554597842955
0.3444699940000007 0.1276095214654795 0.3350518656346783
0.3444699940000007 0.6281587851295991 0.4344173308501264
0.3444699940000007 0.1276975309073993 0.5361665675017381
0.0944700020000013 0.1277700070000023 0.0375900009999981
0.0944700020000013 0.6277700070000023 0.1359799949999996
0.0944702804489924 0.1279538007777326 0.2355521918379984
0.0944657235806104 0.6276502200909999 0.3346869601319637
0.0944661484739095 0.1280372596077907 0.4346849985822134
0.0944862644026793 0.6275975184701852 0.5338537894704853
0.8444700240000031 0.6277700070000023 0.0375900009999981
0.8444700240000031 0.1277700070000023 0.1359799949999996
0.8444700240000031 0.6278618859954491 0.2350560766392577
0.8444700240000031 0.1276115152058992 0.3350503757053637
0.8444700240000031 0.6281438423889996 0.4344185247034389
0.8444700240000031 0.1277153563096007 0.5361643641299805
0.5944700240000031 0.1277700070000023 0.0375900009999981
0.5944700240000031 0.6277700070000023 0.1359799949999996
0.5944697455510123 0.1279538007777326 0.2355521918379984
0.5944743024193944 0.6276502200909999 0.3346869601319637
0.5944738775260948 0.1280372596077907 0.4346849985822134
0.5944537615973249 0.6275975184701852 0.5338537894704853
